num_wann = 18
num_bands = 30

hr_plot=true
write_xyz=true
translate_home_cell=true
 
dis_win_max=50
dis_win_min=-3.0

dis_froz_max=18.0
dis_froz_min=-3.0

dis_mix_ratio=0.5
dis_num_iter=100 
 
num_iter=20
!restart = wannierise

!fixed_centres = .TRUE.
!guiding_centres = .TRUE.
!lambda_c = 5 
 
Begin Projections
Pt:s;p;d
End Projections

spinors = .true.

begin unit_cell_cart
     0.0000000     1.9619500     1.9619500
     1.9619500     0.0000000     1.9619500
     1.9619500     1.9619500     0.0000000
end unit_cell_cart

begin atoms_cart
Pt       0.0000000     0.0000000     0.0000000
end atoms_cart

mp_grid =     8     8     8

begin kpoints
      0.000000000000      0.000000000000      0.000000000000
      0.125000000000      0.000000000000      0.000000000000
      0.250000000000      0.000000000000      0.000000000000
      0.375000000000      0.000000000000      0.000000000000
      0.500000000000      0.000000000000      0.000000000000
     -0.375000000000      0.000000000000      0.000000000000
     -0.250000000000      0.000000000000      0.000000000000
     -0.125000000000      0.000000000000      0.000000000000
      0.000000000000      0.125000000000      0.000000000000
      0.125000000000      0.125000000000      0.000000000000
      0.250000000000      0.125000000000      0.000000000000
      0.375000000000      0.125000000000      0.000000000000
      0.500000000000      0.125000000000      0.000000000000
     -0.375000000000      0.125000000000      0.000000000000
     -0.250000000000      0.125000000000      0.000000000000
     -0.125000000000      0.125000000000      0.000000000000
      0.000000000000      0.250000000000      0.000000000000
      0.125000000000      0.250000000000      0.000000000000
      0.250000000000      0.250000000000      0.000000000000
      0.375000000000      0.250000000000      0.000000000000
      0.500000000000      0.250000000000      0.000000000000
     -0.375000000000      0.250000000000      0.000000000000
     -0.250000000000      0.250000000000      0.000000000000
     -0.125000000000      0.250000000000      0.000000000000
      0.000000000000      0.375000000000      0.000000000000
      0.125000000000      0.375000000000      0.000000000000
      0.250000000000      0.375000000000      0.000000000000
      0.375000000000      0.375000000000      0.000000000000
      0.500000000000      0.375000000000      0.000000000000
     -0.375000000000      0.375000000000      0.000000000000
     -0.250000000000      0.375000000000      0.000000000000
     -0.125000000000      0.375000000000      0.000000000000
      0.000000000000      0.500000000000      0.000000000000
      0.125000000000      0.500000000000      0.000000000000
      0.250000000000      0.500000000000      0.000000000000
      0.375000000000      0.500000000000      0.000000000000
      0.500000000000      0.500000000000      0.000000000000
     -0.375000000000      0.500000000000      0.000000000000
     -0.250000000000      0.500000000000      0.000000000000
     -0.125000000000      0.500000000000      0.000000000000
      0.000000000000     -0.375000000000      0.000000000000
      0.125000000000     -0.375000000000      0.000000000000
      0.250000000000     -0.375000000000      0.000000000000
      0.375000000000     -0.375000000000      0.000000000000
      0.500000000000     -0.375000000000      0.000000000000
     -0.375000000000     -0.375000000000      0.000000000000
     -0.250000000000     -0.375000000000      0.000000000000
     -0.125000000000     -0.375000000000      0.000000000000
      0.000000000000     -0.250000000000      0.000000000000
      0.125000000000     -0.250000000000      0.000000000000
      0.250000000000     -0.250000000000      0.000000000000
      0.375000000000     -0.250000000000      0.000000000000
      0.500000000000     -0.250000000000      0.000000000000
     -0.375000000000     -0.250000000000      0.000000000000
     -0.250000000000     -0.250000000000      0.000000000000
     -0.125000000000     -0.250000000000      0.000000000000
      0.000000000000     -0.125000000000      0.000000000000
      0.125000000000     -0.125000000000      0.000000000000
      0.250000000000     -0.125000000000      0.000000000000
      0.375000000000     -0.125000000000      0.000000000000
      0.500000000000     -0.125000000000      0.000000000000
     -0.375000000000     -0.125000000000      0.000000000000
     -0.250000000000     -0.125000000000      0.000000000000
     -0.125000000000     -0.125000000000      0.000000000000
      0.000000000000      0.000000000000      0.125000000000
      0.125000000000      0.000000000000      0.125000000000
      0.250000000000      0.000000000000      0.125000000000
      0.375000000000      0.000000000000      0.125000000000
      0.500000000000      0.000000000000      0.125000000000
     -0.375000000000      0.000000000000      0.125000000000
     -0.250000000000      0.000000000000      0.125000000000
     -0.125000000000      0.000000000000      0.125000000000
      0.000000000000      0.125000000000      0.125000000000
      0.125000000000      0.125000000000      0.125000000000
      0.250000000000      0.125000000000      0.125000000000
      0.375000000000      0.125000000000      0.125000000000
      0.500000000000      0.125000000000      0.125000000000
     -0.375000000000      0.125000000000      0.125000000000
     -0.250000000000      0.125000000000      0.125000000000
     -0.125000000000      0.125000000000      0.125000000000
      0.000000000000      0.250000000000      0.125000000000
      0.125000000000      0.250000000000      0.125000000000
      0.250000000000      0.250000000000      0.125000000000
      0.375000000000      0.250000000000      0.125000000000
      0.500000000000      0.250000000000      0.125000000000
     -0.375000000000      0.250000000000      0.125000000000
     -0.250000000000      0.250000000000      0.125000000000
     -0.125000000000      0.250000000000      0.125000000000
      0.000000000000      0.375000000000      0.125000000000
      0.125000000000      0.375000000000      0.125000000000
      0.250000000000      0.375000000000      0.125000000000
      0.375000000000      0.375000000000      0.125000000000
      0.500000000000      0.375000000000      0.125000000000
     -0.375000000000      0.375000000000      0.125000000000
     -0.250000000000      0.375000000000      0.125000000000
     -0.125000000000      0.375000000000      0.125000000000
      0.000000000000      0.500000000000      0.125000000000
      0.125000000000      0.500000000000      0.125000000000
      0.250000000000      0.500000000000      0.125000000000
      0.375000000000      0.500000000000      0.125000000000
      0.500000000000      0.500000000000      0.125000000000
     -0.375000000000      0.500000000000      0.125000000000
     -0.250000000000      0.500000000000      0.125000000000
     -0.125000000000      0.500000000000      0.125000000000
      0.000000000000     -0.375000000000      0.125000000000
      0.125000000000     -0.375000000000      0.125000000000
      0.250000000000     -0.375000000000      0.125000000000
      0.375000000000     -0.375000000000      0.125000000000
      0.500000000000     -0.375000000000      0.125000000000
     -0.375000000000     -0.375000000000      0.125000000000
     -0.250000000000     -0.375000000000      0.125000000000
     -0.125000000000     -0.375000000000      0.125000000000
      0.000000000000     -0.250000000000      0.125000000000
      0.125000000000     -0.250000000000      0.125000000000
      0.250000000000     -0.250000000000      0.125000000000
      0.375000000000     -0.250000000000      0.125000000000
      0.500000000000     -0.250000000000      0.125000000000
     -0.375000000000     -0.250000000000      0.125000000000
     -0.250000000000     -0.250000000000      0.125000000000
     -0.125000000000     -0.250000000000      0.125000000000
      0.000000000000     -0.125000000000      0.125000000000
      0.125000000000     -0.125000000000      0.125000000000
      0.250000000000     -0.125000000000      0.125000000000
      0.375000000000     -0.125000000000      0.125000000000
      0.500000000000     -0.125000000000      0.125000000000
     -0.375000000000     -0.125000000000      0.125000000000
     -0.250000000000     -0.125000000000      0.125000000000
     -0.125000000000     -0.125000000000      0.125000000000
      0.000000000000      0.000000000000      0.250000000000
      0.125000000000      0.000000000000      0.250000000000
      0.250000000000      0.000000000000      0.250000000000
      0.375000000000      0.000000000000      0.250000000000
      0.500000000000      0.000000000000      0.250000000000
     -0.375000000000      0.000000000000      0.250000000000
     -0.250000000000      0.000000000000      0.250000000000
     -0.125000000000      0.000000000000      0.250000000000
      0.000000000000      0.125000000000      0.250000000000
      0.125000000000      0.125000000000      0.250000000000
      0.250000000000      0.125000000000      0.250000000000
      0.375000000000      0.125000000000      0.250000000000
      0.500000000000      0.125000000000      0.250000000000
     -0.375000000000      0.125000000000      0.250000000000
     -0.250000000000      0.125000000000      0.250000000000
     -0.125000000000      0.125000000000      0.250000000000
      0.000000000000      0.250000000000      0.250000000000
      0.125000000000      0.250000000000      0.250000000000
      0.250000000000      0.250000000000      0.250000000000
      0.375000000000      0.250000000000      0.250000000000
      0.500000000000      0.250000000000      0.250000000000
     -0.375000000000      0.250000000000      0.250000000000
     -0.250000000000      0.250000000000      0.250000000000
     -0.125000000000      0.250000000000      0.250000000000
      0.000000000000      0.375000000000      0.250000000000
      0.125000000000      0.375000000000      0.250000000000
      0.250000000000      0.375000000000      0.250000000000
      0.375000000000      0.375000000000      0.250000000000
      0.500000000000      0.375000000000      0.250000000000
     -0.375000000000      0.375000000000      0.250000000000
     -0.250000000000      0.375000000000      0.250000000000
     -0.125000000000      0.375000000000      0.250000000000
      0.000000000000      0.500000000000      0.250000000000
      0.125000000000      0.500000000000      0.250000000000
      0.250000000000      0.500000000000      0.250000000000
      0.375000000000      0.500000000000      0.250000000000
      0.500000000000      0.500000000000      0.250000000000
     -0.375000000000      0.500000000000      0.250000000000
     -0.250000000000      0.500000000000      0.250000000000
     -0.125000000000      0.500000000000      0.250000000000
      0.000000000000     -0.375000000000      0.250000000000
      0.125000000000     -0.375000000000      0.250000000000
      0.250000000000     -0.375000000000      0.250000000000
      0.375000000000     -0.375000000000      0.250000000000
      0.500000000000     -0.375000000000      0.250000000000
     -0.375000000000     -0.375000000000      0.250000000000
     -0.250000000000     -0.375000000000      0.250000000000
     -0.125000000000     -0.375000000000      0.250000000000
      0.000000000000     -0.250000000000      0.250000000000
      0.125000000000     -0.250000000000      0.250000000000
      0.250000000000     -0.250000000000      0.250000000000
      0.375000000000     -0.250000000000      0.250000000000
      0.500000000000     -0.250000000000      0.250000000000
     -0.375000000000     -0.250000000000      0.250000000000
     -0.250000000000     -0.250000000000      0.250000000000
     -0.125000000000     -0.250000000000      0.250000000000
      0.000000000000     -0.125000000000      0.250000000000
      0.125000000000     -0.125000000000      0.250000000000
      0.250000000000     -0.125000000000      0.250000000000
      0.375000000000     -0.125000000000      0.250000000000
      0.500000000000     -0.125000000000      0.250000000000
     -0.375000000000     -0.125000000000      0.250000000000
     -0.250000000000     -0.125000000000      0.250000000000
     -0.125000000000     -0.125000000000      0.250000000000
      0.000000000000      0.000000000000      0.375000000000
      0.125000000000      0.000000000000      0.375000000000
      0.250000000000      0.000000000000      0.375000000000
      0.375000000000      0.000000000000      0.375000000000
      0.500000000000      0.000000000000      0.375000000000
     -0.375000000000      0.000000000000      0.375000000000
     -0.250000000000      0.000000000000      0.375000000000
     -0.125000000000      0.000000000000      0.375000000000
      0.000000000000      0.125000000000      0.375000000000
      0.125000000000      0.125000000000      0.375000000000
      0.250000000000      0.125000000000      0.375000000000
      0.375000000000      0.125000000000      0.375000000000
      0.500000000000      0.125000000000      0.375000000000
     -0.375000000000      0.125000000000      0.375000000000
     -0.250000000000      0.125000000000      0.375000000000
     -0.125000000000      0.125000000000      0.375000000000
      0.000000000000      0.250000000000      0.375000000000
      0.125000000000      0.250000000000      0.375000000000
      0.250000000000      0.250000000000      0.375000000000
      0.375000000000      0.250000000000      0.375000000000
      0.500000000000      0.250000000000      0.375000000000
     -0.375000000000      0.250000000000      0.375000000000
     -0.250000000000      0.250000000000      0.375000000000
     -0.125000000000      0.250000000000      0.375000000000
      0.000000000000      0.375000000000      0.375000000000
      0.125000000000      0.375000000000      0.375000000000
      0.250000000000      0.375000000000      0.375000000000
      0.375000000000      0.375000000000      0.375000000000
      0.500000000000      0.375000000000      0.375000000000
     -0.375000000000      0.375000000000      0.375000000000
     -0.250000000000      0.375000000000      0.375000000000
     -0.125000000000      0.375000000000      0.375000000000
      0.000000000000      0.500000000000      0.375000000000
      0.125000000000      0.500000000000      0.375000000000
      0.250000000000      0.500000000000      0.375000000000
      0.375000000000      0.500000000000      0.375000000000
      0.500000000000      0.500000000000      0.375000000000
     -0.375000000000      0.500000000000      0.375000000000
     -0.250000000000      0.500000000000      0.375000000000
     -0.125000000000      0.500000000000      0.375000000000
      0.000000000000     -0.375000000000      0.375000000000
      0.125000000000     -0.375000000000      0.375000000000
      0.250000000000     -0.375000000000      0.375000000000
      0.375000000000     -0.375000000000      0.375000000000
      0.500000000000     -0.375000000000      0.375000000000
     -0.375000000000     -0.375000000000      0.375000000000
     -0.250000000000     -0.375000000000      0.375000000000
     -0.125000000000     -0.375000000000      0.375000000000
      0.000000000000     -0.250000000000      0.375000000000
      0.125000000000     -0.250000000000      0.375000000000
      0.250000000000     -0.250000000000      0.375000000000
      0.375000000000     -0.250000000000      0.375000000000
      0.500000000000     -0.250000000000      0.375000000000
     -0.375000000000     -0.250000000000      0.375000000000
     -0.250000000000     -0.250000000000      0.375000000000
     -0.125000000000     -0.250000000000      0.375000000000
      0.000000000000     -0.125000000000      0.375000000000
      0.125000000000     -0.125000000000      0.375000000000
      0.250000000000     -0.125000000000      0.375000000000
      0.375000000000     -0.125000000000      0.375000000000
      0.500000000000     -0.125000000000      0.375000000000
     -0.375000000000     -0.125000000000      0.375000000000
     -0.250000000000     -0.125000000000      0.375000000000
     -0.125000000000     -0.125000000000      0.375000000000
      0.000000000000      0.000000000000      0.500000000000
      0.125000000000      0.000000000000      0.500000000000
      0.250000000000      0.000000000000      0.500000000000
      0.375000000000      0.000000000000      0.500000000000
      0.500000000000      0.000000000000      0.500000000000
     -0.375000000000      0.000000000000      0.500000000000
     -0.250000000000      0.000000000000      0.500000000000
     -0.125000000000      0.000000000000      0.500000000000
      0.000000000000      0.125000000000      0.500000000000
      0.125000000000      0.125000000000      0.500000000000
      0.250000000000      0.125000000000      0.500000000000
      0.375000000000      0.125000000000      0.500000000000
      0.500000000000      0.125000000000      0.500000000000
     -0.375000000000      0.125000000000      0.500000000000
     -0.250000000000      0.125000000000      0.500000000000
     -0.125000000000      0.125000000000      0.500000000000
      0.000000000000      0.250000000000      0.500000000000
      0.125000000000      0.250000000000      0.500000000000
      0.250000000000      0.250000000000      0.500000000000
      0.375000000000      0.250000000000      0.500000000000
      0.500000000000      0.250000000000      0.500000000000
     -0.375000000000      0.250000000000      0.500000000000
     -0.250000000000      0.250000000000      0.500000000000
     -0.125000000000      0.250000000000      0.500000000000
      0.000000000000      0.375000000000      0.500000000000
      0.125000000000      0.375000000000      0.500000000000
      0.250000000000      0.375000000000      0.500000000000
      0.375000000000      0.375000000000      0.500000000000
      0.500000000000      0.375000000000      0.500000000000
     -0.375000000000      0.375000000000      0.500000000000
     -0.250000000000      0.375000000000      0.500000000000
     -0.125000000000      0.375000000000      0.500000000000
      0.000000000000      0.500000000000      0.500000000000
      0.125000000000      0.500000000000      0.500000000000
      0.250000000000      0.500000000000      0.500000000000
      0.375000000000      0.500000000000      0.500000000000
      0.500000000000      0.500000000000      0.500000000000
     -0.375000000000      0.500000000000      0.500000000000
     -0.250000000000      0.500000000000      0.500000000000
     -0.125000000000      0.500000000000      0.500000000000
      0.000000000000     -0.375000000000      0.500000000000
      0.125000000000     -0.375000000000      0.500000000000
      0.250000000000     -0.375000000000      0.500000000000
      0.375000000000     -0.375000000000      0.500000000000
      0.500000000000     -0.375000000000      0.500000000000
     -0.375000000000     -0.375000000000      0.500000000000
     -0.250000000000     -0.375000000000      0.500000000000
     -0.125000000000     -0.375000000000      0.500000000000
      0.000000000000     -0.250000000000      0.500000000000
      0.125000000000     -0.250000000000      0.500000000000
      0.250000000000     -0.250000000000      0.500000000000
      0.375000000000     -0.250000000000      0.500000000000
      0.500000000000     -0.250000000000      0.500000000000
     -0.375000000000     -0.250000000000      0.500000000000
     -0.250000000000     -0.250000000000      0.500000000000
     -0.125000000000     -0.250000000000      0.500000000000
      0.000000000000     -0.125000000000      0.500000000000
      0.125000000000     -0.125000000000      0.500000000000
      0.250000000000     -0.125000000000      0.500000000000
      0.375000000000     -0.125000000000      0.500000000000
      0.500000000000     -0.125000000000      0.500000000000
     -0.375000000000     -0.125000000000      0.500000000000
     -0.250000000000     -0.125000000000      0.500000000000
     -0.125000000000     -0.125000000000      0.500000000000
      0.000000000000      0.000000000000     -0.375000000000
      0.125000000000      0.000000000000     -0.375000000000
      0.250000000000      0.000000000000     -0.375000000000
      0.375000000000      0.000000000000     -0.375000000000
      0.500000000000      0.000000000000     -0.375000000000
     -0.375000000000      0.000000000000     -0.375000000000
     -0.250000000000      0.000000000000     -0.375000000000
     -0.125000000000      0.000000000000     -0.375000000000
      0.000000000000      0.125000000000     -0.375000000000
      0.125000000000      0.125000000000     -0.375000000000
      0.250000000000      0.125000000000     -0.375000000000
      0.375000000000      0.125000000000     -0.375000000000
      0.500000000000      0.125000000000     -0.375000000000
     -0.375000000000      0.125000000000     -0.375000000000
     -0.250000000000      0.125000000000     -0.375000000000
     -0.125000000000      0.125000000000     -0.375000000000
      0.000000000000      0.250000000000     -0.375000000000
      0.125000000000      0.250000000000     -0.375000000000
      0.250000000000      0.250000000000     -0.375000000000
      0.375000000000      0.250000000000     -0.375000000000
      0.500000000000      0.250000000000     -0.375000000000
     -0.375000000000      0.250000000000     -0.375000000000
     -0.250000000000      0.250000000000     -0.375000000000
     -0.125000000000      0.250000000000     -0.375000000000
      0.000000000000      0.375000000000     -0.375000000000
      0.125000000000      0.375000000000     -0.375000000000
      0.250000000000      0.375000000000     -0.375000000000
      0.375000000000      0.375000000000     -0.375000000000
      0.500000000000      0.375000000000     -0.375000000000
     -0.375000000000      0.375000000000     -0.375000000000
     -0.250000000000      0.375000000000     -0.375000000000
     -0.125000000000      0.375000000000     -0.375000000000
      0.000000000000      0.500000000000     -0.375000000000
      0.125000000000      0.500000000000     -0.375000000000
      0.250000000000      0.500000000000     -0.375000000000
      0.375000000000      0.500000000000     -0.375000000000
      0.500000000000      0.500000000000     -0.375000000000
     -0.375000000000      0.500000000000     -0.375000000000
     -0.250000000000      0.500000000000     -0.375000000000
     -0.125000000000      0.500000000000     -0.375000000000
      0.000000000000     -0.375000000000     -0.375000000000
      0.125000000000     -0.375000000000     -0.375000000000
      0.250000000000     -0.375000000000     -0.375000000000
      0.375000000000     -0.375000000000     -0.375000000000
      0.500000000000     -0.375000000000     -0.375000000000
     -0.375000000000     -0.375000000000     -0.375000000000
     -0.250000000000     -0.375000000000     -0.375000000000
     -0.125000000000     -0.375000000000     -0.375000000000
      0.000000000000     -0.250000000000     -0.375000000000
      0.125000000000     -0.250000000000     -0.375000000000
      0.250000000000     -0.250000000000     -0.375000000000
      0.375000000000     -0.250000000000     -0.375000000000
      0.500000000000     -0.250000000000     -0.375000000000
     -0.375000000000     -0.250000000000     -0.375000000000
     -0.250000000000     -0.250000000000     -0.375000000000
     -0.125000000000     -0.250000000000     -0.375000000000
      0.000000000000     -0.125000000000     -0.375000000000
      0.125000000000     -0.125000000000     -0.375000000000
      0.250000000000     -0.125000000000     -0.375000000000
      0.375000000000     -0.125000000000     -0.375000000000
      0.500000000000     -0.125000000000     -0.375000000000
     -0.375000000000     -0.125000000000     -0.375000000000
     -0.250000000000     -0.125000000000     -0.375000000000
     -0.125000000000     -0.125000000000     -0.375000000000
      0.000000000000      0.000000000000     -0.250000000000
      0.125000000000      0.000000000000     -0.250000000000
      0.250000000000      0.000000000000     -0.250000000000
      0.375000000000      0.000000000000     -0.250000000000
      0.500000000000      0.000000000000     -0.250000000000
     -0.375000000000      0.000000000000     -0.250000000000
     -0.250000000000      0.000000000000     -0.250000000000
     -0.125000000000      0.000000000000     -0.250000000000
      0.000000000000      0.125000000000     -0.250000000000
      0.125000000000      0.125000000000     -0.250000000000
      0.250000000000      0.125000000000     -0.250000000000
      0.375000000000      0.125000000000     -0.250000000000
      0.500000000000      0.125000000000     -0.250000000000
     -0.375000000000      0.125000000000     -0.250000000000
     -0.250000000000      0.125000000000     -0.250000000000
     -0.125000000000      0.125000000000     -0.250000000000
      0.000000000000      0.250000000000     -0.250000000000
      0.125000000000      0.250000000000     -0.250000000000
      0.250000000000      0.250000000000     -0.250000000000
      0.375000000000      0.250000000000     -0.250000000000
      0.500000000000      0.250000000000     -0.250000000000
     -0.375000000000      0.250000000000     -0.250000000000
     -0.250000000000      0.250000000000     -0.250000000000
     -0.125000000000      0.250000000000     -0.250000000000
      0.000000000000      0.375000000000     -0.250000000000
      0.125000000000      0.375000000000     -0.250000000000
      0.250000000000      0.375000000000     -0.250000000000
      0.375000000000      0.375000000000     -0.250000000000
      0.500000000000      0.375000000000     -0.250000000000
     -0.375000000000      0.375000000000     -0.250000000000
     -0.250000000000      0.375000000000     -0.250000000000
     -0.125000000000      0.375000000000     -0.250000000000
      0.000000000000      0.500000000000     -0.250000000000
      0.125000000000      0.500000000000     -0.250000000000
      0.250000000000      0.500000000000     -0.250000000000
      0.375000000000      0.500000000000     -0.250000000000
      0.500000000000      0.500000000000     -0.250000000000
     -0.375000000000      0.500000000000     -0.250000000000
     -0.250000000000      0.500000000000     -0.250000000000
     -0.125000000000      0.500000000000     -0.250000000000
      0.000000000000     -0.375000000000     -0.250000000000
      0.125000000000     -0.375000000000     -0.250000000000
      0.250000000000     -0.375000000000     -0.250000000000
      0.375000000000     -0.375000000000     -0.250000000000
      0.500000000000     -0.375000000000     -0.250000000000
     -0.375000000000     -0.375000000000     -0.250000000000
     -0.250000000000     -0.375000000000     -0.250000000000
     -0.125000000000     -0.375000000000     -0.250000000000
      0.000000000000     -0.250000000000     -0.250000000000
      0.125000000000     -0.250000000000     -0.250000000000
      0.250000000000     -0.250000000000     -0.250000000000
      0.375000000000     -0.250000000000     -0.250000000000
      0.500000000000     -0.250000000000     -0.250000000000
     -0.375000000000     -0.250000000000     -0.250000000000
     -0.250000000000     -0.250000000000     -0.250000000000
     -0.125000000000     -0.250000000000     -0.250000000000
      0.000000000000     -0.125000000000     -0.250000000000
      0.125000000000     -0.125000000000     -0.250000000000
      0.250000000000     -0.125000000000     -0.250000000000
      0.375000000000     -0.125000000000     -0.250000000000
      0.500000000000     -0.125000000000     -0.250000000000
     -0.375000000000     -0.125000000000     -0.250000000000
     -0.250000000000     -0.125000000000     -0.250000000000
     -0.125000000000     -0.125000000000     -0.250000000000
      0.000000000000      0.000000000000     -0.125000000000
      0.125000000000      0.000000000000     -0.125000000000
      0.250000000000      0.000000000000     -0.125000000000
      0.375000000000      0.000000000000     -0.125000000000
      0.500000000000      0.000000000000     -0.125000000000
     -0.375000000000      0.000000000000     -0.125000000000
     -0.250000000000      0.000000000000     -0.125000000000
     -0.125000000000      0.000000000000     -0.125000000000
      0.000000000000      0.125000000000     -0.125000000000
      0.125000000000      0.125000000000     -0.125000000000
      0.250000000000      0.125000000000     -0.125000000000
      0.375000000000      0.125000000000     -0.125000000000
      0.500000000000      0.125000000000     -0.125000000000
     -0.375000000000      0.125000000000     -0.125000000000
     -0.250000000000      0.125000000000     -0.125000000000
     -0.125000000000      0.125000000000     -0.125000000000
      0.000000000000      0.250000000000     -0.125000000000
      0.125000000000      0.250000000000     -0.125000000000
      0.250000000000      0.250000000000     -0.125000000000
      0.375000000000      0.250000000000     -0.125000000000
      0.500000000000      0.250000000000     -0.125000000000
     -0.375000000000      0.250000000000     -0.125000000000
     -0.250000000000      0.250000000000     -0.125000000000
     -0.125000000000      0.250000000000     -0.125000000000
      0.000000000000      0.375000000000     -0.125000000000
      0.125000000000      0.375000000000     -0.125000000000
      0.250000000000      0.375000000000     -0.125000000000
      0.375000000000      0.375000000000     -0.125000000000
      0.500000000000      0.375000000000     -0.125000000000
     -0.375000000000      0.375000000000     -0.125000000000
     -0.250000000000      0.375000000000     -0.125000000000
     -0.125000000000      0.375000000000     -0.125000000000
      0.000000000000      0.500000000000     -0.125000000000