
#exclude_bands 1-36

#fermi_energy = 6.6224
dis_win_min = -3  #-4
dis_win_max = 20  #2.47
dis_froz_min     = -3
dis_froz_max     = 7

dis_num_iter = 100

!!restart=wannierise
num_iter          = 0
num_print_cycles  = 10

hr_plot = .true.
iprint=3

!restart = plot
!bands_plot = true
!bands_plot_format = xmgrace
#!bands_num_points = 100

begin projections
Co:l=2
S:l=1
Sn:l=0;l=1
end projections


# This part was generated automatically by VASP
num_bands = 72
num_wann = 58

spinors = .true.

begin unit_cell_cart
     3.0997359     0.0000000     4.3920000
    -1.5498679     2.6844500     4.3920000
    -1.5498679    -2.6844500     4.3920000
end unit_cell_cart

begin atoms_cart
Co       1.5498679     0.0000000     2.1960000
Co      -0.7749340     1.3422250     2.1960000
Co      -0.7749340    -1.3422250     2.1960000
S        0.0000000     0.0000000     3.7381637
S        0.0000000     0.0000000     9.4378363
Sn       0.0000000     0.0000000     0.0000000
Sn       0.0000000     0.0000000     6.5880000
end atoms_cart

mp_grid =     8     8     8

begin kpoints
      0.000000000000      0.000000000000      0.000000000000
      0.125000000000      0.000000000000      0.000000000000
      0.250000000000      0.000000000000      0.000000000000
      0.375000000000      0.000000000000      0.000000000000
      0.500000000000      0.000000000000      0.000000000000
     -0.375000000000      0.000000000000      0.000000000000
     -0.250000000000      0.000000000000      0.000000000000
     -0.125000000000      0.000000000000      0.000000000000
      0.000000000000      0.125000000000     -0.000000000000
      0.125000000000      0.125000000000      0.000000000000
      0.250000000000      0.125000000000      0.000000000000
      0.375000000000      0.125000000000      0.000000000000
      0.500000000000      0.125000000000     -0.000000000000
     -0.375000000000      0.125000000000      0.000000000000
     -0.250000000000      0.125000000000      0.000000000000
     -0.125000000000      0.125000000000      0.000000000000
      0.000000000000      0.250000000000     -0.000000000000
      0.125000000000      0.250000000000      0.000000000000
      0.250000000000      0.250000000000      0.000000000000
      0.375000000000      0.250000000000      0.000000000000
      0.500000000000      0.250000000000      0.000000000000
     -0.375000000000      0.250000000000     -0.000000000000
     -0.250000000000      0.250000000000      0.000000000000
     -0.125000000000      0.250000000000     -0.000000000000
      0.000000000000      0.375000000000      0.000000000000
      0.125000000000      0.375000000000      0.000000000000
      0.250000000000      0.375000000000     -0.000000000000
      0.375000000000      0.375000000000      0.000000000000
      0.500000000000      0.375000000000      0.000000000000
     -0.375000000000      0.375000000000      0.000000000000
     -0.250000000000      0.375000000000     -0.000000000000
     -0.125000000000      0.375000000000      0.000000000000
      0.000000000000      0.500000000000     -0.000000000000
      0.125000000000      0.500000000000     -0.000000000000
      0.250000000000      0.500000000000      0.000000000000
      0.375000000000      0.500000000000      0.000000000000
      0.500000000000      0.500000000000      0.000000000000
     -0.375000000000      0.500000000000     -0.000000000000
     -0.250000000000      0.500000000000     -0.000000000000
     -0.125000000000      0.500000000000      0.000000000000
      0.000000000000     -0.375000000000      0.000000000000
      0.125000000000     -0.375000000000      0.000000000000
      0.250000000000     -0.375000000000      0.000000000000
      0.375000000000     -0.375000000000      0.000000000000
      0.500000000000     -0.375000000000     -0.000000000000
     -0.375000000000     -0.375000000000      0.000000000000
     -0.250000000000     -0.375000000000      0.000000000000
     -0.125000000000     -0.375000000000      0.000000000000
      0.000000000000     -0.250000000000      0.000000000000
      0.125000000000     -0.250000000000      0.000000000000
      0.250000000000     -0.250000000000      0.000000000000
      0.375000000000     -0.250000000000      0.000000000000
      0.500000000000     -0.250000000000     -0.000000000000
     -0.375000000000     -0.250000000000      0.000000000000
     -0.250000000000     -0.250000000000      0.000000000000
     -0.125000000000     -0.250000000000      0.000000000000
      0.000000000000     -0.125000000000      0.000000000000
      0.125000000000     -0.125000000000      0.000000000000
      0.250000000000     -0.125000000000     -0.000000000000
      0.375000000000     -0.125000000000      0.000000000000
      0.500000000000     -0.125000000000      0.000000000000
     -0.375000000000     -0.125000000000      0.000000000000
     -0.250000000000     -0.125000000000      0.000000000000
     -0.125000000000     -0.125000000000      0.000000000000
      0.000000000000     -0.000000000000      0.125000000000
      0.125000000000      0.000000000000      0.125000000000
      0.250000000000      0.000000000000      0.125000000000
      0.375000000000      0.000000000000      0.125000000000
      0.500000000000     -0.000000000000      0.125000000000
     -0.375000000000      0.000000000000      0.125000000000
     -0.250000000000      0.000000000000      0.125000000000
     -0.125000000000      0.000000000000      0.125000000000
      0.000000000000      0.125000000000      0.125000000000
      0.125000000000      0.125000000000      0.125000000000
      0.250000000000      0.125000000000      0.125000000000
      0.375000000000      0.125000000000      0.125000000000
      0.500000000000      0.125000000000      0.125000000000
     -0.375000000000      0.125000000000      0.125000000000
     -0.250000000000      0.125000000000      0.125000000000
     -0.125000000000      0.125000000000      0.125000000000
      0.000000000000      0.250000000000      0.125000000000
      0.125000000000      0.250000000000      0.125000000000
      0.250000000000      0.250000000000      0.125000000000
      0.375000000000      0.250000000000      0.125000000000
      0.500000000000      0.250000000000      0.125000000000
     -0.375000000000      0.250000000000      0.125000000000
     -0.250000000000      0.250000000000      0.125000000000
     -0.125000000000      0.250000000000      0.125000000000
      0.000000000000      0.375000000000      0.125000000000
      0.125000000000      0.375000000000      0.125000000000
      0.250000000000      0.375000000000      0.125000000000
      0.375000000000      0.375000000000      0.125000000000
      0.500000000000      0.375000000000      0.125000000000
     -0.375000000000      0.375000000000      0.125000000000
     -0.250000000000      0.375000000000      0.125000000000
     -0.125000000000      0.375000000000      0.125000000000
     -0.000000000000      0.500000000000      0.125000000000
      0.125000000000      0.500000000000      0.125000000000
      0.250000000000      0.500000000000      0.125000000000
      0.375000000000      0.500000000000      0.125000000000
      0.500000000000      0.500000000000      0.125000000000
     -0.375000000000      0.500000000000      0.125000000000
     -0.250000000000      0.500000000000      0.125000000000
     -0.125000000000      0.500000000000      0.125000000000
     -0.000000000000     -0.375000000000      0.125000000000
      0.125000000000     -0.375000000000      0.125000000000
      0.250000000000     -0.375000000000      0.125000000000
      0.375000000000     -0.375000000000      0.125000000000
      0.500000000000     -0.375000000000      0.125000000000
     -0.375000000000     -0.375000000000      0.125000000000
     -0.250000000000     -0.375000000000      0.125000000000
     -0.125000000000     -0.375000000000      0.125000000000
      0.000000000000     -0.250000000000      0.125000000000
      0.125000000000     -0.250000000000      0.125000000000
      0.250000000000     -0.250000000000      0.125000000000
      0.375000000000     -0.250000000000      0.125000000000
      0.500000000000     -0.250000000000      0.125000000000
     -0.375000000000     -0.250000000000      0.125000000000
     -0.250000000000     -0.250000000000      0.125000000000
     -0.125000000000     -0.250000000000      0.125000000000
      0.000000000000     -0.125000000000      0.125000000000
      0.125000000000     -0.125000000000      0.125000000000
      0.250000000000     -0.125000000000      0.125000000000
      0.375000000000     -0.125000000000      0.125000000000
      0.500000000000     -0.125000000000      0.125000000000
     -0.375000000000     -0.125000000000      0.125000000000
     -0.250000000000     -0.125000000000      0.125000000000
     -0.125000000000     -0.125000000000      0.125000000000
      0.000000000000     -0.000000000000      0.250000000000
      0.125000000000      0.000000000000      0.250000000000
      0.250000000000      0.000000000000      0.250000000000
      0.375000000000      0.000000000000      0.250000000000
      0.500000000000      0.000000000000      0.250000000000
     -0.375000000000     -0.000000000000      0.250000000000
     -0.250000000000      0.000000000000      0.250000000000
     -0.125000000000     -0.000000000000      0.250000000000
      0.000000000000      0.125000000000      0.250000000000
      0.125000000000      0.125000000000      0.250000000000
      0.250000000000      0.125000000000      0.250000000000
      0.375000000000      0.125000000000      0.250000000000
      0.500000000000      0.125000000000      0.250000000000
     -0.375000000000      0.125000000000      0.250000000000
     -0.250000000000      0.125000000000      0.250000000000
     -0.125000000000      0.125000000000      0.250000000000
      0.000000000000      0.250000000000      0.250000000000
      0.125000000000      0.250000000000      0.250000000000
      0.250000000000      0.250000000000      0.250000000000
      0.375000000000      0.250000000000      0.250000000000
      0.500000000000      0.250000000000      0.250000000000
     -0.375000000000      0.250000000000      0.250000000000
     -0.250000000000      0.250000000000      0.250000000000
     -0.125000000000      0.250000000000      0.250000000000
      0.000000000000      0.375000000000      0.250000000000
      0.125000000000      0.375000000000      0.250000000000
      0.250000000000      0.375000000000      0.250000000000
      0.375000000000      0.375000000000      0.250000000000
      0.500000000000      0.375000000000      0.250000000000
     -0.375000000000      0.375000000000      0.250000000000
     -0.250000000000      0.375000000000      0.250000000000
     -0.125000000000      0.375000000000      0.250000000000
      0.000000000000      0.500000000000      0.250000000000
      0.125000000000      0.500000000000      0.250000000000
      0.250000000000      0.500000000000      0.250000000000
      0.375000000000      0.500000000000      0.250000000000
      0.500000000000      0.500000000000      0.250000000000
     -0.375000000000      0.500000000000      0.250000000000
     -0.250000000000      0.500000000000      0.250000000000
     -0.125000000000      0.500000000000      0.250000000000
     -0.000000000000     -0.375000000000      0.250000000000
      0.125000000000     -0.375000000000      0.250000000000
      0.250000000000     -0.375000000000      0.250000000000
      0.375000000000     -0.375000000000      0.250000000000
      0.500000000000     -0.375000000000      0.250000000000
     -0.375000000000     -0.375000000000      0.250000000000
     -0.250000000000     -0.375000000000      0.250000000000
     -0.125000000000     -0.375000000000      0.250000000000
      0.000000000000     -0.250000000000      0.250000000000
      0.125000000000     -0.250000000000      0.250000000000
      0.250000000000     -0.250000000000      0.250000000000
      0.375000000000     -0.250000000000      0.250000000000
      0.500000000000     -0.250000000000      0.250000000000
     -0.375000000000     -0.250000000000      0.250000000000
     -0.250000000000     -0.250000000000      0.250000000000
     -0.125000000000     -0.250000000000      0.250000000000
      0.000000000000     -0.125000000000      0.250000000000
      0.125000000000     -0.125000000000      0.250000000000
      0.250000000000     -0.125000000000      0.250000000000
      0.375000000000     -0.125000000000      0.250000000000
      0.500000000000     -0.125000000000      0.250000000000
     -0.375000000000     -0.125000000000      0.250000000000
     -0.250000000000     -0.125000000000      0.250000000000
     -0.125000000000     -0.125000000000      0.250000000000
      0.000000000000      0.000000000000      0.375000000000
      0.125000000000      0.000000000000      0.375000000000
      0.250000000000     -0.000000000000      0.375000000000
      0.375000000000      0.000000000000      0.375000000000
      0.500000000000      0.000000000000      0.375000000000
     -0.375000000000      0.000000000000      0.375000000000
     -0.250000000000     -0.000000000000      0.375000000000
     -0.125000000000      0.000000000000      0.375000000000
      0.000000000000      0.125000000000      0.375000000000
      0.125000000000      0.125000000000      0.375000000000
      0.250000000000      0.125000000000      0.375000000000
      0.375000000000      0.125000000000      0.375000000000
      0.500000000000      0.125000000000      0.375000000000
     -0.375000000000      0.125000000000      0.375000000000
     -0.250000000000      0.125000000000      0.375000000000
     -0.125000000000      0.125000000000      0.375000000000
      0.000000000000      0.250000000000      0.375000000000
      0.125000000000      0.250000000000      0.375000000000
      0.250000000000      0.250000000000      0.375000000000
      0.375000000000      0.250000000000      0.375000000000
      0.500000000000      0.250000000000      0.375000000000
     -0.375000000000      0.250000000000      0.375000000000
     -0.250000000000      0.250000000000      0.375000000000
     -0.125000000000      0.250000000000      0.375000000000
      0.000000000000      0.375000000000      0.375000000000
      0.125000000000      0.375000000000      0.375000000000
      0.250000000000      0.375000000000      0.375000000000
      0.375000000000      0.375000000000      0.375000000000
      0.500000000000      0.375000000000      0.375000000000
     -0.375000000000      0.375000000000      0.375000000000
     -0.250000000000      0.375000000000      0.375000000000
     -0.125000000000      0.375000000000      0.375000000000
      0.000000000000      0.500000000000      0.375000000000
      0.125000000000      0.500000000000      0.375000000000
      0.250000000000      0.500000000000      0.375000000000
      0.375000000000      0.500000000000      0.375000000000
      0.500000000000      0.500000000000      0.375000000000
     -0.375000000000      0.500000000000      0.375000000000
     -0.250000000000      0.500000000000      0.375000000000
     -0.125000000000      0.500000000000      0.375000000000
      0.000000000000     -0.375000000000      0.375000000000
      0.125000000000     -0.375000000000      0.375000000000
      0.250000000000     -0.375000000000      0.375000000000
      0.375000000000     -0.375000000000      0.375000000000
      0.500000000000     -0.375000000000      0.375000000000
     -0.375000000000     -0.375000000000      0.375000000000
     -0.250000000000     -0.375000000000      0.375000000000
     -0.125000000000     -0.375000000000      0.375000000000
      0.000000000000     -0.250000000000      0.375000000000
      0.125000000000     -0.250000000000      0.375000000000
      0.250000000000     -0.250000000000      0.375000000000
      0.375000000000     -0.250000000000      0.375000000000
      0.500000000000     -0.250000000000      0.375000000000
     -0.375000000000     -0.250000000000      0.375000000000
     -0.250000000000     -0.250000000000      0.375000000000
     -0.125000000000     -0.250000000000      0.375000000000
      0.000000000000     -0.125000000000      0.375000000000
      0.125000000000     -0.125000000000      0.375000000000
      0.250000000000     -0.125000000000      0.375000000000
      0.375000000000     -0.125000000000      0.375000000000
      0.500000000000     -0.125000000000      0.375000000000
     -0.375000000000     -0.125000000000      0.375000000000
     -0.250000000000     -0.125000000000      0.375000000000
     -0.125000000000     -0.125000000000      0.375000000000
      0.000000000000     -0.000000000000      0.500000000000
      0.125000000000     -0.000000000000      0.500000000000
      0.250000000000      0.000000000000      0.500000000000
      0.375000000000      0.000000000000      0.500000000000
      0.500000000000      0.000000000000      0.500000000000
     -0.375000000000     -0.000000000000      0.500000000000
     -0.250000000000     -0.000000000000      0.500000000000
     -0.125000000000      0.000000000000      0.500000000000
     -0.000000000000      0.125000000000      0.500000000000
      0.125000000000      0.125000000000      0.500000000000
      0.250000000000      0.125000000000      0.500000000000
      0.375000000000      0.125000000000      0.500000000000
      0.500000000000      0.125000000000      0.500000000000
     -0.375000000000      0.125000000000      0.500000000000
     -0.250000000000      0.125000000000      0.500000000000
     -0.125000000000      0.125000000000      0.500000000000
      0.000000000000      0.250000000000      0.500000000000
      0.125000000000      0.250000000000      0.500000000000
      0.250000000000      0.250000000000      0.500000000000
      0.375000000000      0.250000000000      0.500000000000
      0.500000000000      0.250000000000      0.500000000000
     -0.375000000000      0.250000000000      0.500000000000
     -0.250000000000      0.250000000000      0.500000000000
     -0.125000000000      0.250000000000      0.500000000000
      0.000000000000      0.375000000000      0.500000000000
      0.125000000000      0.375000000000      0.500000000000
      0.250000000000      0.375000000000      0.500000000000
      0.375000000000      0.375000000000      0.500000000000
      0.500000000000      0.375000000000      0.500000000000
     -0.375000000000      0.375000000000      0.500000000000
     -0.250000000000      0.375000000000      0.500000000000
     -0.125000000000      0.375000000000      0.500000000000
      0.000000000000      0.500000000000      0.500000000000
      0.125000000000      0.500000000000      0.500000000000
      0.250000000000      0.500000000000      0.500000000000
      0.375000000000      0.500000000000      0.500000000000
      0.500000000000      0.500000000000      0.500000000000
     -0.375000000000      0.500000000000      0.500000000000
     -0.250000000000      0.500000000000      0.500000000000
     -0.125000000000      0.500000000000      0.500000000000
      0.000000000000     -0.375000000000      0.500000000000
      0.125000000000     -0.375000000000      0.500000000000
      0.250000000000     -0.375000000000      0.500000000000
      0.375000000000     -0.375000000000      0.500000000000
      0.500000000000     -0.375000000000      0.500000000000
     -0.375000000000     -0.375000000000      0.500000000000
     -0.250000000000     -0.375000000000      0.500000000000
     -0.125000000000     -0.375000000000      0.500000000000
      0.000000000000     -0.250000000000      0.500000000000
      0.125000000000     -0.250000000000      0.500000000000
      0.250000000000     -0.250000000000      0.500000000000
      0.375000000000     -0.250000000000      0.500000000000
      0.500000000000     -0.250000000000      0.500000000000
     -0.375000000000     -0.250000000000      0.500000000000
     -0.250000000000     -0.250000000000      0.500000000000
     -0.125000000000     -0.250000000000      0.500000000000
      0.000000000000     -0.125000000000      0.500000000000
      0.125000000000     -0.125000000000      0.500000000000
      0.250000000000     -0.125000000000      0.500000000000
      0.375000000000     -0.125000000000      0.500000000000
      0.500000000000     -0.125000000000      0.500000000000
     -0.375000000000     -0.125000000000      0.500000000000
     -0.250000000000     -0.125000000000      0.500000000000
     -0.125000000000     -0.125000000000      0.500000000000
      0.000000000000      0.000000000000     -0.375000000000
      0.125000000000      0.000000000000     -0.375000000000
      0.250000000000      0.000000000000     -0.375000000000
      0.375000000000      0.000000000000     -0.375000000000
      0.500000000000     -0.000000000000     -0.375000000000
     -0.375000000000      0.000000000000     -0.375000000000
     -0.250000000000      0.000000000000     -0.375000000000
     -0.125000000000      0.000000000000     -0.375000000000
     -0.000000000000      0.125000000000     -0.375000000000
      0.125000000000      0.125000000000     -0.375000000000
      0.250000000000      0.125000000000     -0.375000000000
      0.375000000000      0.125000000000     -0.375000000000
      0.500000000000      0.125000000000     -0.375000000000
     -0.375000000000      0.125000000000     -0.375000000000
     -0.250000000000      0.125000000000     -0.375000000000
     -0.125000000000      0.125000000000     -0.375000000000
     -0.000000000000      0.250000000000     -0.375000000000
      0.125000000000      0.250000000000     -0.375000000000
      0.250000000000      0.250000000000     -0.375000000000
      0.375000000000      0.250000000000     -0.375000000000
      0.500000000000      0.250000000000     -0.375000000000
     -0.375000000000      0.250000000000     -0.375000000000
     -0.250000000000      0.250000000000     -0.375000000000
     -0.125000000000      0.250000000000     -0.375000000000
      0.000000000000      0.375000000000     -0.375000000000
      0.125000000000      0.375000000000     -0.375000000000
      0.250000000000      0.375000000000     -0.375000000000
      0.375000000000      0.375000000000     -0.375000000000
      0.500000000000      0.375000000000     -0.375000000000
     -0.375000000000      0.375000000000     -0.375000000000
     -0.250000000000      0.375000000000     -0.375000000000
     -0.125000000000      0.375000000000     -0.375000000000
      0.000000000000      0.500000000000     -0.375000000000
      0.125000000000      0.500000000000     -0.375000000000
      0.250000000000      0.500000000000     -0.375000000000
      0.375000000000      0.500000000000     -0.375000000000
      0.500000000000      0.500000000000     -0.375000000000
     -0.375000000000      0.500000000000     -0.375000000000
     -0.250000000000      0.500000000000     -0.375000000000
     -0.125000000000      0.500000000000     -0.375000000000
      0.000000000000     -0.375000000000     -0.375000000000
      0.125000000000     -0.375000000000     -0.375000000000
      0.250000000000     -0.375000000000     -0.375000000000
      0.375000000000     -0.375000000000     -0.375000000000
      0.500000000000     -0.375000000000     -0.375000000000
     -0.375000000000     -0.375000000000     -0.375000000000
     -0.250000000000     -0.375000000000     -0.375000000000
     -0.125000000000     -0.375000000000     -0.375000000000
      0.000000000000     -0.250000000000     -0.375000000000
      0.125000000000     -0.250000000000     -0.375000000000
      0.250000000000     -0.250000000000     -0.375000000000
      0.375000000000     -0.250000000000     -0.375000000000
      0.500000000000     -0.250000000000     -0.375000000000
     -0.375000000000     -0.250000000000     -0.375000000000
     -0.250000000000     -0.250000000000     -0.375000000000
     -0.125000000000     -0.250000000000     -0.375000000000
      0.000000000000     -0.125000000000     -0.375000000000
      0.125000000000     -0.125000000000     -0.375000000000
      0.250000000000     -0.125000000000     -0.375000000000
      0.375000000000     -0.125000000000     -0.375000000000
      0.500000000000     -0.125000000000     -0.375000000000
     -0.375000000000     -0.125000000000     -0.375000000000
     -0.250000000000     -0.125000000000     -0.375000000000
     -0.125000000000     -0.125000000000     -0.375000000000
      0.000000000000      0.000000000000     -0.250000000000
      0.125000000000      0.000000000000     -0.250000000000
      0.250000000000      0.000000000000     -0.250000000000
      0.375000000000      0.000000000000     -0.250000000000
      0.500000000000     -0.000000000000     -0.250000000000
     -0.375000000000      0.000000000000     -0.250000000000
     -0.250000000000      0.000000000000     -0.250000000000
     -0.125000000000      0.000000000000     -0.250000000000
      0.000000000000      0.125000000000     -0.250000000000
      0.125000000000      0.125000000000     -0.250000000000
      0.250000000000      0.125000000000     -0.250000000000
      0.375000000000      0.125000000000     -0.250000000000
      0.500000000000      0.125000000000     -0.250000000000
     -0.375000000000      0.125000000000     -0.250000000000
     -0.250000000000      0.125000000000     -0.250000000000
     -0.125000000000      0.125000000000     -0.250000000000
      0.000000000000      0.250000000000     -0.250000000000
      0.125000000000      0.250000000000     -0.250000000000
      0.250000000000      0.250000000000     -0.250000000000
      0.375000000000      0.250000000000     -0.250000000000
      0.500000000000      0.250000000000     -0.250000000000
     -0.375000000000      0.250000000000     -0.250000000000
     -0.250000000000      0.250000000000     -0.250000000000
     -0.125000000000      0.250000000000     -0.250000000000
      0.000000000000      0.375000000000     -0.250000000000
      0.125000000000      0.375000000000     -0.250000000000
      0.250000000000      0.375000000000     -0.250000000000
      0.375000000000      0.375000000000     -0.250000000000
      0.500000000000      0.375000000000     -0.250000000000
     -0.375000000000      0.375000000000     -0.250000000000
     -0.250000000000      0.375000000000     -0.250000000000
     -0.125000000000      0.375000000000     -0.250000000000
      0.000000000000      0.500000000000     -0.250000000000
      0.125000000000      0.500000000000     -0.250000000000
      0.250000000000      0.500000000000     -0.250000000000
      0.375000000000      0.500000000000     -0.250000000000
      0.500000000000      0.500000000000     -0.250000000000
     -0.375000000000      0.500000000000     -0.250000000000
     -0.250000000000      0.500000000000     -0.250000000000
     -0.125000000000      0.500000000000     -0.250000000000
      0.000000000000     -0.375000000000     -0.250000000000
      0.125000000000     -0.375000000000     -0.250000000000
      0.250000000000     -0.375000000000     -0.250000000000
      0.375000000000     -0.375000000000     -0.250000000000
      0.500000000000     -0.375000000000     -0.250000000000
     -0.375000000000     -0.375000000000     -0.250000000000
     -0.250000000000     -0.375000000000     -0.250000000000
     -0.125000000000     -0.375000000000     -0.250000000000
      0.000000000000     -0.250000000000     -0.250000000000
      0.125000000000     -0.250000000000     -0.250000000000
      0.250000000000     -0.250000000000     -0.250000000000
      0.375000000000     -0.250000000000     -0.250000000000
      0.500000000000     -0.250000000000     -0.250000000000
     -0.375000000000     -0.250000000000     -0.250000000000
     -0.250000000000     -0.250000000000     -0.250000000000
     -0.125000000000     -0.250000000000     -0.250000000000
      0.000000000000     -0.125000000000     -0.250000000000
      0.125000000000     -0.125000000000     -0.250000000000
      0.250000000000     -0.125000000000     -0.250000000000
      0.375000000000     -0.125000000000     -0.250000000000
      0.500000000000     -0.125000000000     -0.250000000000
     -0.375000000000     -0.125000000000     -0.250000000000
     -0.250000000000     -0.125000000000     -0.250000000000
     -0.125000000000     -0.125000000000     -0.250000000000
      0.000000000000      0.000000000000     -0.125000000000
      0.125000000000      0.000000000000     -0.125000000000
      0.250000000000     -0.000000000000     -0.125000000000
      0.375000000000      0.000000000000     -0.125000000000
      0.500000000000      0.000000000000     -0.125000000000
     -0.375000000000      0.000000000000     -0.125000000000
     -0.250000000000      0.000000000000     -0.125000000000
     -0.125000000000      0.000000000000     -0.125000000000
      0.000000000000      0.125000000000     -0.125000000000
      0.125000000000      0.125000000000     -0.125000000000
      0.250000000000      0.125000000000     -0.125000000000
      0.375000000000      0.125000000000     -0.125000000000
      0.500000000000      0.125000000000     -0.125000000000
     -0.375000000000      0.125000000000     -0.125000000000
     -0.250000000000      0.125000000000     -0.125000000000
     -0.125000000000      0.125000000000     -0.125000000000
      0.000000000000      0.250000000000     -0.125000000000
      0.125000000000      0.250000000000     -0.125000000000
      0.250000000000      0.250000000000     -0.125000000000
      0.375000000000      0.250000000000     -0.125000000000
      0.500000000000      0.250000000000     -0.125000000000
     -0.375000000000      0.250000000000     -0.125000000000
     -0.250000000000      0.250000000000     -0.125000000000
     -0.125000000000      0.250000000000     -0.125000000000
      0.000000000000      0.375000000000     -0.125000000000
      0.125000000000      0.375000000000     -0.125000000000