SYSTEM = TMD-1Tp
EDIFF = 1E-7
PREC = H
LSORBIT = .TRUE.
LORBIT = 11
LREAL = .FALSE.
ISMEAR =  0
SIGMA  =  0.10
GGA    = PE
ENCUT = 520.00 eV
MAGMOM = 160*0.0
ICHARG = 1

#HSE06
LHFCALC = .TRUE. ; HFSCREEN = 0.2
ALGO = Damped ; TIME = 0.5
PRECFOCK  = N
NELMIN = 8

##VASP2WANNIER
LWANNIER90 = .TRUE.
NBANDS = 108 # 18 occupied

NSW = 0
