WSe2                                    
   1.00000000000000     
     3.1770280139589571    0.0000000000000000    0.0000000000000000
     0.0000000000000000    5.7281689431742455   -0.0157118470068534
     0.0000000000000000    0.3756910330601151   30.2151819975086902
   Mo   S 
     2     4
Direct
  0.5000000049999969  0.4188543132266640  0.5873016275251595
 -0.0000000000000000  0.0233088607917941  0.5925355564141651
  0.5000000049999969  0.1358785901303858  0.6473858970202739
  0.0000000000000000  0.6405161490437790  0.6337728762151337
 -0.0000000000000000  0.3062864083475208  0.5324524179435783
  0.5000000049999969  0.8016452854598629  0.5460646648816858
 
  0.00000000E+00  0.00000000E+00  0.00000000E+00
  0.00000000E+00  0.00000000E+00  0.00000000E+00
  0.00000000E+00  0.00000000E+00  0.00000000E+00
  0.00000000E+00  0.00000000E+00  0.00000000E+00
  0.00000000E+00  0.00000000E+00  0.00000000E+00
  0.00000000E+00  0.00000000E+00  0.00000000E+00
