num_bands = 144
num_wann = 48

!modifiable from run.py
dis_win_min = -13.0
dis_win_max = 20.0
!dis_froz_min = -13.0
dis_froz_max =  -.1
dis_num_iter = 200 
num_iter = 0 
iprint = 2

!hr_plot =.true.
write_hr = .true.

begin projections
Mo : s; d
S  :  p
end projections
!end section to change for different projections

spinors = .true.

begin unit_cell_cart
     3.1770280     0.0000000     0.0000000
     0.0000000     5.7281689    -0.0157118
     0.0000000     0.3756910    30.2151820
end unit_cell_cart

begin atoms_cart
Mo       1.5885140     2.6199122    17.7388446
Mo       0.0000000     0.3561274    17.9032035
S        1.5885140     1.0215526    19.5587478
S        0.0000000     3.9070875    19.1394991
S        0.0000000     1.9544979    16.0833344
S        1.5885140     4.7971112    16.4868479
end atoms_cart

mp_grid =     8     4     1

begin kpoints
      0.000000000000      0.000000000000      0.000000000000
      0.125000000000      0.000000000000      0.000000000000
      0.250000000000      0.000000000000      0.000000000000
      0.375000000000      0.000000000000      0.000000000000
      0.500000000000      0.000000000000      0.000000000000
     -0.375000000000      0.000000000000      0.000000000000
     -0.250000000000      0.000000000000      0.000000000000
     -0.125000000000      0.000000000000      0.000000000000
      0.000000000000      0.250000000000     -0.000000000000
      0.125000000000      0.250000000000     -0.000000000000
      0.250000000000      0.250000000000     -0.000000000000
      0.375000000000      0.250000000000     -0.000000000000
      0.500000000000      0.250000000000     -0.000000000000
     -0.375000000000      0.250000000000     -0.000000000000
     -0.250000000000      0.250000000000     -0.000000000000
     -0.125000000000      0.250000000000     -0.000000000000
      0.000000000000      0.500000000000     -0.000000000000
      0.125000000000      0.500000000000     -0.000000000000
      0.250000000000      0.500000000000     -0.000000000000
      0.375000000000      0.500000000000     -0.000000000000
      0.500000000000      0.500000000000     -0.000000000000
     -0.375000000000      0.500000000000     -0.000000000000
     -0.250000000000      0.500000000000     -0.000000000000
     -0.125000000000      0.500000000000     -0.000000000000
      0.000000000000     -0.250000000000      0.000000000000
      0.125000000000     -0.250000000000      0.000000000000
      0.250000000000     -0.250000000000      0.000000000000
      0.375000000000     -0.250000000000      0.000000000000
      0.500000000000     -0.250000000000      0.000000000000
     -0.375000000000     -0.250000000000      0.000000000000
     -0.250000000000     -0.250000000000      0.000000000000
     -0.125000000000     -0.250000000000      0.000000000000
end kpoints
