SYSTEM = ZrSiS_192
ISTART = 1
ICHARG = 11
ENCUT = 400
ISMEAR = 0
SIGMA = 0.05
LWAVE = .TRUE.
EDIFF = 1E-8
PREC = Accurate
MAGMOM = 1000*0
NBANDS=60
LWANNIER90 = .TRUE.
