Zr Si S
1.0
 3.5496073769164020    0.0000000000000000    0.0000000000000000
 0.0000000000000000    3.5496073769164020    0.0000000000000000
 0.0000000000000000    0.0000000000000000    8.1636955490019929
Zr Si S
2 2 2
direct
 0.5000000000000000  0.0000000000000000  0.2317361549757430  Zr
 0.0000000000000000  0.5000000000000000  0.7682638450242570  Zr
 0.5000000000000000  0.5000000000000000  0.5000000000000000  Si
 0.0000000000000000  0.0000000000000000  0.5000000000000000  Si
 0.0000000000000000  0.5000000000000000  0.1223761531972395  S
 0.5000000000000000  0.0000000000000000  0.8776238468027605  S

