num_bands = 60 
num_wann = 24

dis_win_min = -2.5
dis_win_max = 31
dis_froz_min = -2.71
dis_froz_max = 13.69
dis_num_iter = 30
num_iter = 10 

iprint=3
hr_plot =.true.

begin projections
Zr : d
Si : s; p
S  : p
end projections



begin unit_cell_cart
     3.5496074     0.0000000     0.0000000
     0.0000000     3.5496074     0.0000000
     0.0000000     0.0000000     8.1636955
end unit_cell_cart

begin atoms_cart
Zr       1.7748037     0.0000000     1.8918234
Zr       0.0000000     1.7748037     6.2718721
Si       1.7748037     1.7748037     4.0818478
Si       0.0000000     0.0000000     4.0818478
S        0.0000000     1.7748037     0.9990417
S        1.7748037     0.0000000     7.1646539
end atoms_cart

mp_grid =     9     9     4

begin kpoints
      0.000000000000      0.000000000000      0.000000000000
      0.111111111111      0.000000000000      0.000000000000
      0.222222222222      0.000000000000      0.000000000000
      0.333333333333      0.000000000000      0.000000000000
      0.444444444444      0.000000000000      0.000000000000
     -0.444444444444      0.000000000000      0.000000000000
     -0.333333333333      0.000000000000      0.000000000000
     -0.222222222222      0.000000000000      0.000000000000
     -0.111111111111      0.000000000000      0.000000000000
      0.000000000000      0.111111111111      0.000000000000
      0.111111111111      0.111111111111      0.000000000000
      0.222222222222      0.111111111111      0.000000000000
      0.333333333333      0.111111111111      0.000000000000
      0.444444444444      0.111111111111      0.000000000000
     -0.444444444444      0.111111111111      0.000000000000
     -0.333333333333      0.111111111111      0.000000000000
     -0.222222222222      0.111111111111      0.000000000000
     -0.111111111111      0.111111111111      0.000000000000
      0.000000000000      0.222222222222      0.000000000000
      0.111111111111      0.222222222222      0.000000000000
      0.222222222222      0.222222222222      0.000000000000
      0.333333333333      0.222222222222      0.000000000000
      0.444444444444      0.222222222222      0.000000000000
     -0.444444444444      0.222222222222      0.000000000000
     -0.333333333333      0.222222222222      0.000000000000
     -0.222222222222      0.222222222222      0.000000000000
     -0.111111111111      0.222222222222      0.000000000000
      0.000000000000      0.333333333333      0.000000000000
      0.111111111111      0.333333333333      0.000000000000
      0.222222222222      0.333333333333      0.000000000000
      0.333333333333      0.333333333333      0.000000000000
      0.444444444444      0.333333333333      0.000000000000
     -0.444444444444      0.333333333333      0.000000000000
     -0.333333333333      0.333333333333      0.000000000000
     -0.222222222222      0.333333333333      0.000000000000
     -0.111111111111      0.333333333333      0.000000000000
      0.000000000000      0.444444444444      0.000000000000
      0.111111111111      0.444444444444      0.000000000000
      0.222222222222      0.444444444444      0.000000000000
      0.333333333333      0.444444444444      0.000000000000
      0.444444444444      0.444444444444      0.000000000000
     -0.444444444444      0.444444444444      0.000000000000
     -0.333333333333      0.444444444444      0.000000000000
     -0.222222222222      0.444444444444      0.000000000000
     -0.111111111111      0.444444444444      0.000000000000
      0.000000000000     -0.444444444444      0.000000000000
      0.111111111111     -0.444444444444      0.000000000000
      0.222222222222     -0.444444444444      0.000000000000
      0.333333333333     -0.444444444444      0.000000000000
      0.444444444444     -0.444444444444      0.000000000000
     -0.444444444444     -0.444444444444      0.000000000000
     -0.333333333333     -0.444444444444      0.000000000000
     -0.222222222222     -0.444444444444      0.000000000000
     -0.111111111111     -0.444444444444      0.000000000000
      0.000000000000     -0.333333333333      0.000000000000
      0.111111111111     -0.333333333333      0.000000000000
      0.222222222222     -0.333333333333      0.000000000000
      0.333333333333     -0.333333333333      0.000000000000
      0.444444444444     -0.333333333333      0.000000000000
     -0.444444444444     -0.333333333333      0.000000000000
     -0.333333333333     -0.333333333333      0.000000000000
     -0.222222222222     -0.333333333333      0.000000000000
     -0.111111111111     -0.333333333333      0.000000000000
      0.000000000000     -0.222222222222      0.000000000000
      0.111111111111     -0.222222222222      0.000000000000
      0.222222222222     -0.222222222222      0.000000000000
      0.333333333333     -0.222222222222      0.000000000000
      0.444444444444     -0.222222222222      0.000000000000
     -0.444444444444     -0.222222222222      0.000000000000
     -0.333333333333     -0.222222222222      0.000000000000
     -0.222222222222     -0.222222222222      0.000000000000
     -0.111111111111     -0.222222222222      0.000000000000
      0.000000000000     -0.111111111111      0.000000000000
      0.111111111111     -0.111111111111      0.000000000000
      0.222222222222     -0.111111111111      0.000000000000
      0.333333333333     -0.111111111111      0.000000000000
      0.444444444444     -0.111111111111      0.000000000000
     -0.444444444444     -0.111111111111      0.000000000000
     -0.333333333333     -0.111111111111      0.000000000000
     -0.222222222222     -0.111111111111      0.000000000000
     -0.111111111111     -0.111111111111      0.000000000000
      0.000000000000      0.000000000000      0.250000000000
      0.111111111111      0.000000000000      0.250000000000
      0.222222222222      0.000000000000      0.250000000000
      0.333333333333      0.000000000000      0.250000000000
      0.444444444444      0.000000000000      0.250000000000
     -0.444444444444      0.000000000000      0.250000000000
     -0.333333333333      0.000000000000      0.250000000000
     -0.222222222222      0.000000000000      0.250000000000
     -0.111111111111      0.000000000000      0.250000000000
      0.000000000000      0.111111111111      0.250000000000
      0.111111111111      0.111111111111      0.250000000000
      0.222222222222      0.111111111111      0.250000000000
      0.333333333333      0.111111111111      0.250000000000
      0.444444444444      0.111111111111      0.250000000000
     -0.444444444444      0.111111111111      0.250000000000
     -0.333333333333      0.111111111111      0.250000000000
     -0.222222222222      0.111111111111      0.250000000000
     -0.111111111111      0.111111111111      0.250000000000
      0.000000000000      0.222222222222      0.250000000000
      0.111111111111      0.222222222222      0.250000000000
      0.222222222222      0.222222222222      0.250000000000
      0.333333333333      0.222222222222      0.250000000000
      0.444444444444      0.222222222222      0.250000000000
     -0.444444444444      0.222222222222      0.250000000000
     -0.333333333333      0.222222222222      0.250000000000
     -0.222222222222      0.222222222222      0.250000000000
     -0.111111111111      0.222222222222      0.250000000000
      0.000000000000      0.333333333333      0.250000000000
      0.111111111111      0.333333333333      0.250000000000
      0.222222222222      0.333333333333      0.250000000000
      0.333333333333      0.333333333333      0.250000000000
      0.444444444444      0.333333333333      0.250000000000
     -0.444444444444      0.333333333333      0.250000000000
     -0.333333333333      0.333333333333      0.250000000000
     -0.222222222222      0.333333333333      0.250000000000
     -0.111111111111      0.333333333333      0.250000000000
      0.000000000000      0.444444444444      0.250000000000
      0.111111111111      0.444444444444      0.250000000000
      0.222222222222      0.444444444444      0.250000000000
      0.333333333333      0.444444444444      0.250000000000
      0.444444444444      0.444444444444      0.250000000000
     -0.444444444444      0.444444444444      0.250000000000
     -0.333333333333      0.444444444444      0.250000000000
     -0.222222222222      0.444444444444      0.250000000000
     -0.111111111111      0.444444444444      0.250000000000
      0.000000000000     -0.444444444444      0.250000000000
      0.111111111111     -0.444444444444      0.250000000000
      0.222222222222     -0.444444444444      0.250000000000
      0.333333333333     -0.444444444444      0.250000000000
      0.444444444444     -0.444444444444      0.250000000000
     -0.444444444444     -0.444444444444      0.250000000000
     -0.333333333333     -0.444444444444      0.250000000000
     -0.222222222222     -0.444444444444      0.250000000000
     -0.111111111111     -0.444444444444      0.250000000000
      0.000000000000     -0.333333333333      0.250000000000
      0.111111111111     -0.333333333333      0.250000000000
      0.222222222222     -0.333333333333      0.250000000000
      0.333333333333     -0.333333333333      0.250000000000
      0.444444444444     -0.333333333333      0.250000000000
     -0.444444444444     -0.333333333333      0.250000000000
     -0.333333333333     -0.333333333333      0.250000000000
     -0.222222222222     -0.333333333333      0.250000000000
     -0.111111111111     -0.333333333333      0.250000000000
      0.000000000000     -0.222222222222      0.250000000000
      0.111111111111     -0.222222222222      0.250000000000
      0.222222222222     -0.222222222222      0.250000000000
      0.333333333333     -0.222222222222      0.250000000000
      0.444444444444     -0.222222222222      0.250000000000
     -0.444444444444     -0.222222222222      0.250000000000
     -0.333333333333     -0.222222222222      0.250000000000
     -0.222222222222     -0.222222222222      0.250000000000
     -0.111111111111     -0.222222222222      0.250000000000
      0.000000000000     -0.111111111111      0.250000000000
      0.111111111111     -0.111111111111      0.250000000000
      0.222222222222     -0.111111111111      0.250000000000
      0.333333333333     -0.111111111111      0.250000000000
      0.444444444444     -0.111111111111      0.250000000000
     -0.444444444444     -0.111111111111      0.250000000000
     -0.333333333333     -0.111111111111      0.250000000000
     -0.222222222222     -0.111111111111      0.250000000000
     -0.111111111111     -0.111111111111      0.250000000000
      0.000000000000      0.000000000000      0.500000000000
      0.111111111111      0.000000000000      0.500000000000
      0.222222222222      0.000000000000      0.500000000000
      0.333333333333      0.000000000000      0.500000000000
      0.444444444444      0.000000000000      0.500000000000
     -0.444444444444      0.000000000000      0.500000000000
     -0.333333333333      0.000000000000      0.500000000000
     -0.222222222222      0.000000000000      0.500000000000
     -0.111111111111      0.000000000000      0.500000000000
      0.000000000000      0.111111111111      0.500000000000
      0.111111111111      0.111111111111      0.500000000000
      0.222222222222      0.111111111111      0.500000000000
      0.333333333333      0.111111111111      0.500000000000
      0.444444444444      0.111111111111      0.500000000000
     -0.444444444444      0.111111111111      0.500000000000
     -0.333333333333      0.111111111111      0.500000000000
     -0.222222222222      0.111111111111      0.500000000000
     -0.111111111111      0.111111111111      0.500000000000
      0.000000000000      0.222222222222      0.500000000000
      0.111111111111      0.222222222222      0.500000000000
      0.222222222222      0.222222222222      0.500000000000
      0.333333333333      0.222222222222      0.500000000000
      0.444444444444      0.222222222222      0.500000000000
     -0.444444444444      0.222222222222      0.500000000000
     -0.333333333333      0.222222222222      0.500000000000
     -0.222222222222      0.222222222222      0.500000000000
     -0.111111111111      0.222222222222      0.500000000000
      0.000000000000      0.333333333333      0.500000000000
      0.111111111111      0.333333333333      0.500000000000
      0.222222222222      0.333333333333      0.500000000000
      0.333333333333      0.333333333333      0.500000000000
      0.444444444444      0.333333333333      0.500000000000
     -0.444444444444      0.333333333333      0.500000000000
     -0.333333333333      0.333333333333      0.500000000000
     -0.222222222222      0.333333333333      0.500000000000
     -0.111111111111      0.333333333333      0.500000000000
      0.000000000000      0.444444444444      0.500000000000
      0.111111111111      0.444444444444      0.500000000000
      0.222222222222      0.444444444444      0.500000000000
      0.333333333333      0.444444444444      0.500000000000
      0.444444444444      0.444444444444      0.500000000000
     -0.444444444444      0.444444444444      0.500000000000
     -0.333333333333      0.444444444444      0.500000000000
     -0.222222222222      0.444444444444      0.500000000000
     -0.111111111111      0.444444444444      0.500000000000
      0.000000000000     -0.444444444444      0.500000000000
      0.111111111111     -0.444444444444      0.500000000000
      0.222222222222     -0.444444444444      0.500000000000
      0.333333333333     -0.444444444444      0.500000000000
      0.444444444444     -0.444444444444      0.500000000000
     -0.444444444444     -0.444444444444      0.500000000000
     -0.333333333333     -0.444444444444      0.500000000000
     -0.222222222222     -0.444444444444      0.500000000000
     -0.111111111111     -0.444444444444      0.500000000000
      0.000000000000     -0.333333333333      0.500000000000
      0.111111111111     -0.333333333333      0.500000000000
      0.222222222222     -0.333333333333      0.500000000000
      0.333333333333     -0.333333333333      0.500000000000
      0.444444444444     -0.333333333333      0.500000000000
     -0.444444444444     -0.333333333333      0.500000000000
     -0.333333333333     -0.333333333333      0.500000000000
     -0.222222222222     -0.333333333333      0.500000000000
     -0.111111111111     -0.333333333333      0.500000000000
      0.000000000000     -0.222222222222      0.500000000000
      0.111111111111     -0.222222222222      0.500000000000
      0.222222222222     -0.222222222222      0.500000000000
      0.333333333333     -0.222222222222      0.500000000000
      0.444444444444     -0.222222222222      0.500000000000
     -0.444444444444     -0.222222222222      0.500000000000
     -0.333333333333     -0.222222222222      0.500000000000
     -0.222222222222     -0.222222222222      0.500000000000
     -0.111111111111     -0.222222222222      0.500000000000
      0.000000000000     -0.111111111111      0.500000000000
      0.111111111111     -0.111111111111      0.500000000000
      0.222222222222     -0.111111111111      0.500000000000
      0.333333333333     -0.111111111111      0.500000000000
      0.444444444444     -0.111111111111      0.500000000000
     -0.444444444444     -0.111111111111      0.500000000000
     -0.333333333333     -0.111111111111      0.500000000000
     -0.222222222222     -0.111111111111      0.500000000000
     -0.111111111111     -0.111111111111      0.500000000000
      0.000000000000      0.000000000000     -0.250000000000
      0.111111111111      0.000000000000     -0.250000000000
      0.222222222222      0.000000000000     -0.250000000000
      0.333333333333      0.000000000000     -0.250000000000
      0.444444444444      0.000000000000     -0.250000000000
     -0.444444444444      0.000000000000     -0.250000000000
     -0.333333333333      0.000000000000     -0.250000000000
     -0.222222222222      0.000000000000     -0.250000000000
     -0.111111111111      0.000000000000     -0.250000000000
      0.000000000000      0.111111111111     -0.250000000000
      0.111111111111      0.111111111111     -0.250000000000
      0.222222222222      0.111111111111     -0.250000000000
      0.333333333333      0.111111111111     -0.250000000000
      0.444444444444      0.111111111111     -0.250000000000
     -0.444444444444      0.111111111111     -0.250000000000
     -0.333333333333      0.111111111111     -0.250000000000
     -0.222222222222      0.111111111111     -0.250000000000
     -0.111111111111      0.111111111111     -0.250000000000
      0.000000000000      0.222222222222     -0.250000000000
      0.111111111111      0.222222222222     -0.250000000000
      0.222222222222      0.222222222222     -0.250000000000
      0.333333333333      0.222222222222     -0.250000000000
      0.444444444444      0.222222222222     -0.250000000000
     -0.444444444444      0.222222222222     -0.250000000000
     -0.333333333333      0.222222222222     -0.250000000000
     -0.222222222222      0.222222222222     -0.250000000000
     -0.111111111111      0.222222222222     -0.250000000000
      0.000000000000      0.333333333333     -0.250000000000
      0.111111111111      0.333333333333     -0.250000000000
      0.222222222222      0.333333333333     -0.250000000000
      0.333333333333      0.333333333333     -0.250000000000
      0.444444444444      0.333333333333     -0.250000000000
     -0.444444444444      0.333333333333     -0.250000000000
     -0.333333333333      0.333333333333     -0.250000000000
     -0.222222222222      0.333333333333     -0.250000000000
     -0.111111111111      0.333333333333     -0.250000000000
      0.000000000000      0.444444444444     -0.250000000000
      0.111111111111      0.444444444444     -0.250000000000
      0.222222222222      0.444444444444     -0.250000000000
      0.333333333333      0.444444444444     -0.250000000000
      0.444444444444      0.444444444444     -0.250000000000
     -0.444444444444      0.444444444444     -0.250000000000
     -0.333333333333      0.444444444444     -0.250000000000
     -0.222222222222      0.444444444444     -0.250000000000
     -0.111111111111      0.444444444444     -0.250000000000
      0.000000000000     -0.444444444444     -0.250000000000
      0.111111111111     -0.444444444444     -0.250000000000
      0.222222222222     -0.444444444444     -0.250000000000
      0.333333333333     -0.444444444444     -0.250000000000
      0.444444444444     -0.444444444444     -0.250000000000
     -0.444444444444     -0.444444444444     -0.250000000000
     -0.333333333333     -0.444444444444     -0.250000000000
     -0.222222222222     -0.444444444444     -0.250000000000
     -0.111111111111     -0.444444444444     -0.250000000000
      0.000000000000     -0.333333333333     -0.250000000000
      0.111111111111     -0.333333333333     -0.250000000000
      0.222222222222     -0.333333333333     -0.250000000000
      0.333333333333     -0.333333333333     -0.250000000000
      0.444444444444     -0.333333333333     -0.250000000000
     -0.444444444444     -0.333333333333     -0.250000000000
     -0.333333333333     -0.333333333333     -0.250000000000
     -0.222222222222     -0.333333333333     -0.250000000000
     -0.111111111111     -0.333333333333     -0.250000000000
      0.000000000000     -0.222222222222     -0.250000000000
      0.111111111111     -0.222222222222     -0.250000000000
      0.222222222222     -0.222222222222     -0.250000000000
      0.333333333333     -0.222222222222     -0.250000000000
      0.444444444444     -0.222222222222     -0.250000000000
     -0.444444444444     -0.222222222222     -0.250000000000
     -0.333333333333     -0.222222222222     -0.250000000000
     -0.222222222222     -0.222222222222     -0.250000000000
     -0.111111111111     -0.222222222222     -0.250000000000
      0.000000000000     -0.111111111111     -0.250000000000
      0.111111111111     -0.111111111111     -0.250000000000
      0.222222222222     -0.111111111111     -0.250000000000
      0.333333333333     -0.111111111111     -0.250000000000
      0.444444444444     -0.111111111111     -0.250000000000
     -0.444444444444     -0.111111111111     -0.250000000000
     -0.333333333333     -0.111111111111     -0.250000000000
     -0.222222222222     -0.111111111111     -0.250000000000
     -0.111111111111     -0.111111111111     -0.250000000000
end kpoints
