num_bands = 120
num_wann = 48

!modifiable from run.py
dis_win_min = -10.5
dis_win_max = 10.0
dis_froz_min = -10.5
dis_froz_max = -2.0
dis_num_iter = 100 
num_iter = 0 
iprint = 2

!hr_plot =.true.
write_hr = .true.

begin projections
W : s; d
Se :  p
end projections
!end section to change for different projections

spinors = .true.

begin unit_cell_cart
     3.2981915     0.0000000     0.0000000
     0.0000000     5.9443957    -0.0465052
     0.0000000    -0.0987512    28.0482181
end unit_cell_cart

begin atoms_cart
W        1.6490957     2.3786520    16.4406451
W        0.0000000     0.1332231    16.6311989
Se       1.6490957     0.7737841    18.4325241
Se       0.0000000     3.7846718    17.9156060
Se       0.0000000     1.7381028    14.6392263
Se       1.6490957     4.6716096    15.1096395
end atoms_cart

mp_grid =     8     4     1

begin kpoints
      0.000000000000      0.000000000000      0.000000000000
      0.125000000000      0.000000000000      0.000000000000
      0.250000000000      0.000000000000      0.000000000000
      0.375000000000      0.000000000000      0.000000000000
      0.500000000000      0.000000000000      0.000000000000
     -0.375000000000      0.000000000000      0.000000000000
     -0.250000000000      0.000000000000      0.000000000000
     -0.125000000000      0.000000000000      0.000000000000
      0.000000000000      0.250000000000     -0.000000000000
      0.125000000000      0.250000000000     -0.000000000000
      0.250000000000      0.250000000000     -0.000000000000
      0.375000000000      0.250000000000     -0.000000000000
      0.500000000000      0.250000000000     -0.000000000000
     -0.375000000000      0.250000000000     -0.000000000000
     -0.250000000000      0.250000000000     -0.000000000000
     -0.125000000000      0.250000000000     -0.000000000000
      0.000000000000      0.500000000000     -0.000000000000
      0.125000000000      0.500000000000     -0.000000000000
      0.250000000000      0.500000000000     -0.000000000000
      0.375000000000      0.500000000000     -0.000000000000
      0.500000000000      0.500000000000     -0.000000000000
     -0.375000000000      0.500000000000     -0.000000000000
     -0.250000000000      0.500000000000     -0.000000000000
     -0.125000000000      0.500000000000     -0.000000000000
      0.000000000000     -0.250000000000      0.000000000000
      0.125000000000     -0.250000000000      0.000000000000
      0.250000000000     -0.250000000000      0.000000000000
      0.375000000000     -0.250000000000      0.000000000000
      0.500000000000     -0.250000000000      0.000000000000
     -0.375000000000     -0.250000000000      0.000000000000
     -0.250000000000     -0.250000000000      0.000000000000
     -0.125000000000     -0.250000000000      0.000000000000
end kpoints
