! Twisted  2 layerstheta=   9.430008 degree.
1.0
   14.939557    0.000000    0.000000
   -7.469779   12.938036    0.000000
    0.000000    0.000000   23.360000
     C
   148
Cartesian
    5.854691    6.643856   10.000000        C
    6.460349    7.926004   10.000000        C
    7.873550    8.042563   10.000000        C
    8.479208    9.324711   10.000000        C
   -5.047148    9.441269   10.000000        C
   -4.441490   10.723417   10.000000        C
   -3.028289   10.839976   10.000000        C
   -2.422631   12.122124   10.000000        C
   -1.009430   12.238683   10.000000        C
    7.066007    0.582794   10.000000        C
    8.479208    0.699353   10.000000        C
    9.084866    1.981501   10.000000        C
   10.498067    2.098060   10.000000        C
   11.103725    3.380208   10.000000        C
   12.516926    3.496766   10.000000        C
   -1.816973    4.778914   10.000000        C
   -0.403772    4.895473   10.000000        C
    0.201886    6.177621   10.000000        C
    1.615087    6.294180   10.000000        C
    2.220745    7.576327   10.000000        C
    3.633946    7.692886   10.000000        C
    4.239604    8.975034   10.000000        C
    5.652805    9.091593   10.000000        C
    6.258463   10.373740   10.000000        C
    7.671664   10.490299   10.000000        C
   -6.662235   11.772447   10.000000        C
   -5.249034   11.889006   10.000000        C
    2.826403    0.233118   10.000000        C
    4.239604    0.349677   10.000000        C
    4.845262    1.631824   10.000000        C
    6.258463    1.748383   10.000000        C
    6.864121    3.030531   10.000000        C
    8.277322    3.147090   10.000000        C
    8.882980    4.429238   10.000000        C
   10.296181    4.545796   10.000000        C
   10.901839    5.827944   10.000000        C
   -2.624517    5.944503   10.000000        C
   -2.018859    7.226651   10.000000        C
   -0.605658    7.343210   10.000000        C
    0.000000    8.625357   10.000000        C
    1.413201    8.741916   10.000000        C
    2.018859   10.024064   10.000000        C
    3.432060   10.140623   10.000000        C
    4.037718   11.422770   10.000000        C
    5.450919   11.539329   10.000000        C
    6.056577   12.821477   10.000000        C
    0.000000   -0.000000   10.000000        C
    0.605658    1.282148   10.000000        C
    2.018859    1.398707   10.000000        C
    2.624517    2.680854   10.000000        C
    4.037718    2.797413   10.000000        C
    4.643376    4.079561   10.000000        C
    6.056577    4.196120   10.000000        C
    6.662235    5.478267   10.000000        C
    8.075436    5.594826   10.000000        C
    8.681094    6.876974   10.000000        C
   10.094295    6.993533   10.000000        C
   -4.239604    8.275681   10.000000        C
   -2.826403    8.392240   10.000000        C
   -2.220745    9.674387   10.000000        C
   -0.807544    9.790946   10.000000        C
   -0.201886   11.073094   10.000000        C
    1.211315   11.189653   10.000000        C
    1.816973   12.471800   10.000000        C
    3.230174   12.588359   10.000000        C
   11.305611    0.932471   10.000000        C
   12.718812    1.049030   10.000000        C
   13.324470    2.331178   10.000000        C
   -0.201886    2.447737   10.000000        C
    0.403772    3.729884   10.000000        C
    1.816973    3.846443   10.000000        C
    2.422631    5.128591   10.000000        C
    3.835832    5.245150   10.000000        C
    4.441490    6.527297   10.000000        C
    2.826403    8.392240   13.360000        C
    3.633946    9.557828   13.360000        C
    5.047148    9.441269   13.360000        C
    5.854691   10.606858   13.360000        C
    7.267893   10.490299   13.360000        C
    8.075436   11.655888   13.360000        C
   -5.450919   11.539329   13.360000        C
   -4.643376   12.704918   13.360000        C
   -3.230174   12.588359   13.360000        C
    5.047148    0.815912   13.360000        C
    6.460349    0.699353   13.360000        C
    7.267893    1.864942   13.360000        C
    8.681094    1.748383   13.360000        C
    9.488638    2.913972   13.360000        C
   10.901839    2.797413   13.360000        C
   11.709383    3.963002   13.360000        C
   -1.816973    3.846443   13.360000        C
   -1.009430    5.012032   13.360000        C
    0.403772    4.895473   13.360000        C
    1.211315    6.061062   13.360000        C
    2.624517    5.944503   13.360000        C
    3.432060    7.110092   13.360000        C
    4.845262    6.993533   13.360000        C
    5.652805    8.159122   13.360000        C
    7.066007    8.042563   13.360000        C
    7.873550    9.208152   13.360000        C
    3.028289   10.839976   13.360000        C
    3.835832   12.005565   13.360000        C
    5.249034   11.889006   13.360000        C
   13.526356    0.116559   13.360000        C
   -0.000000   -0.000000   13.360000        C
    0.807544    1.165589   13.360000        C
    2.220745    1.049030   13.360000        C
    3.028289    2.214619   13.360000        C
    4.441490    2.098060   13.360000        C
    5.249034    3.263649   13.360000        C
    6.662235    3.147090   13.360000        C
    7.469779    4.312679   13.360000        C
    8.882980    4.196120   13.360000        C
    9.690523    5.361709   13.360000        C
   11.103725    5.245150   13.360000        C
   -3.028289    6.410739   13.360000        C
   -1.615087    6.294180   13.360000        C
   -0.807544    7.459768   13.360000        C
    0.605658    7.343210   13.360000        C
    1.413201    8.508798   13.360000        C
   10.699953    0.349677   13.360000        C
   11.507497    1.515265   13.360000        C
   12.920698    1.398707   13.360000        C
   -1.211315    2.564295   13.360000        C
    0.201886    2.447737   13.360000        C
    1.009430    3.613325   13.360000        C
    2.422631    3.496766   13.360000        C
    3.230174    4.662355   13.360000        C
    4.643376    4.545796   13.360000        C
    5.450919    5.711385   13.360000        C
    6.864121    5.594826   13.360000        C
    7.671664    6.760415   13.360000        C
    9.084866    6.643856   13.360000        C
    9.892409    7.809445   13.360000        C
   -3.633946    7.692886   13.360000        C
   -2.826403    8.858475   13.360000        C
   -1.413201    8.741916   13.360000        C
   -0.605658    9.907505   13.360000        C
    0.807544    9.790946   13.360000        C
    1.615087   10.956535   13.360000        C
    9.286752    9.091593   13.360000        C
   -4.845262   10.257182   13.360000        C
   -3.432060   10.140623   13.360000        C
   -2.624517   11.306212   13.360000        C
   -1.211315   11.189653   13.360000        C
   -0.403772   12.355241   13.360000        C
    1.009430   12.238683   13.360000        C
    9.286752    0.466236   13.360000        C
