POSCAR for slab defined by SURFACE card and Nslab and Vacuum_thickness_in_Angstrom in wt.in by WannierTools
1.0
    6.381000  -13.508264    0.000000
    8.508000   12.280240    0.000000
    0.000000    0.000000  253.600000
C     
  1480
Cartesian
    8.508006   -2.456047   28.831991        C
    8.508006   -2.456047   52.191991        C
    8.508006   -2.456047   75.551991        C
    8.508006   -2.456047   98.911991        C
    8.508006   -2.456047  122.271991        C
    8.508006   -2.456047  145.631991        C
    8.508006   -2.456047  168.991991        C
    8.508006   -2.456047  192.351991        C
    8.508006   -2.456047  215.711991        C
    8.508006   -2.456047  239.071991        C
    9.926005   -2.456047   28.831991        C
    9.926005   -2.456047   52.191991        C
    9.926005   -2.456047   75.551991        C
    9.926005   -2.456047   98.911991        C
    9.926005   -2.456047  122.271991        C
    9.926005   -2.456047  145.631991        C
    9.926005   -2.456047  168.991991        C
    9.926005   -2.456047  192.351991        C
    9.926005   -2.456047  215.711991        C
    9.926005   -2.456047  239.071991        C
   10.635004   -3.684070   28.831991        C
   10.635004   -3.684070   52.191991        C
   10.635004   -3.684070   75.551991        C
   10.635004   -3.684070   98.911991        C
   10.635004   -3.684070  122.271991        C
   10.635004   -3.684070  145.631991        C
   10.635004   -3.684070  168.991991        C
   10.635004   -3.684070  192.351991        C
   10.635004   -3.684070  215.711991        C
   10.635004   -3.684070  239.071991        C
   12.053003   -3.684070   28.831991        C
   12.053003   -3.684070   52.191991        C
   12.053003   -3.684070   75.551991        C
   12.053003   -3.684070   98.911991        C
   12.053003   -3.684070  122.271991        C
   12.053003   -3.684070  145.631991        C
   12.053003   -3.684070  168.991991        C
   12.053003   -3.684070  192.351991        C
   12.053003   -3.684070  215.711991        C
   12.053003   -3.684070  239.071991        C
    6.381002    8.596172   28.831991        C
    6.381002    8.596172   52.191991        C
    6.381002    8.596172   75.551991        C
    6.381002    8.596172   98.911991        C
    6.381002    8.596172  122.271991        C
    6.381002    8.596172  145.631991        C
    6.381002    8.596172  168.991991        C
    6.381002    8.596172  192.351991        C
    6.381002    8.596172  215.711991        C
    6.381002    8.596172  239.071991        C
    7.799001    8.596172   28.831991        C
    7.799001    8.596172   52.191991        C
    7.799001    8.596172   75.551991        C
    7.799001    8.596172   98.911991        C
    7.799001    8.596172  122.271991        C
    7.799001    8.596172  145.631991        C
    7.799001    8.596172  168.991991        C
    7.799001    8.596172  192.351991        C
    7.799001    8.596172  215.711991        C
    7.799001    8.596172  239.071991        C
    8.508000    7.368149   28.831991        C
    8.508000    7.368149   52.191991        C
    8.508000    7.368149   75.551991        C
    8.508000    7.368149   98.911991        C
    8.508000    7.368149  122.271991        C
    8.508000    7.368149  145.631991        C
    8.508000    7.368149  168.991991        C
    8.508000    7.368149  192.351991        C
    8.508000    7.368149  215.711991        C
    8.508000    7.368149  239.071991        C
    9.925999    7.368149   28.831991        C
    9.925999    7.368149   52.191991        C
    9.925999    7.368149   75.551991        C
    9.925999    7.368149   98.911991        C
    9.925999    7.368149  122.271991        C
    9.925999    7.368149  145.631991        C
    9.925999    7.368149  168.991991        C
    9.925999    7.368149  192.351991        C
    9.925999    7.368149  215.711991        C
    9.925999    7.368149  239.071991        C
   10.634998    6.140126   28.831991        C
   10.634998    6.140126   52.191991        C
   10.634998    6.140126   75.551991        C
   10.634998    6.140126   98.911991        C
   10.634998    6.140126  122.271991        C
   10.634998    6.140126  145.631991        C
   10.634998    6.140126  168.991991        C
   10.634998    6.140126  192.351991        C
   10.634998    6.140126  215.711991        C
   10.634998    6.140126  239.071991        C
    3.544996   -6.140114   28.831991        C
    3.544996   -6.140114   52.191991        C
    3.544996   -6.140114   75.551991        C
    3.544996   -6.140114   98.911991        C
    3.544996   -6.140114  122.271991        C
    3.544996   -6.140114  145.631991        C
    3.544996   -6.140114  168.991991        C
    3.544996   -6.140114  192.351991        C
    3.544996   -6.140114  215.711991        C
    3.544996   -6.140114  239.071991        C
    4.254002   -7.368150   28.831991        C
    4.254002   -7.368150   52.191991        C
    4.254002   -7.368150   75.551991        C
    4.254002   -7.368150   98.911991        C
    4.254002   -7.368150  122.271991        C
    4.254002   -7.368150  145.631991        C
    4.254002   -7.368150  168.991991        C
    4.254002   -7.368150  192.351991        C
    4.254002   -7.368150  215.711991        C
    4.254002   -7.368150  239.071991        C
    5.672001   -7.368150   28.831991        C
    5.672001   -7.368150   52.191991        C
    5.672001   -7.368150   75.551991        C
    5.672001   -7.368150   98.911991        C
    5.672001   -7.368150  122.271991        C
    5.672001   -7.368150  145.631991        C
    5.672001   -7.368150  168.991991        C
    5.672001   -7.368150  192.351991        C
    5.672001   -7.368150  215.711991        C
    5.672001   -7.368150  239.071991        C
    6.381000   -8.596173   28.831991        C
    6.381000   -8.596173   52.191991        C
    6.381000   -8.596173   75.551991        C
    6.381000   -8.596173   98.911991        C
    6.381000   -8.596173  122.271991        C
    6.381000   -8.596173  145.631991        C
    6.381000   -8.596173  168.991991        C
    6.381000   -8.596173  192.351991        C
    6.381000   -8.596173  215.711991        C
    6.381000   -8.596173  239.071991        C
    7.798999   -8.596173   28.831991        C
    7.798999   -8.596173   52.191991        C
    7.798999   -8.596173   75.551991        C
    7.798999   -8.596173   98.911991        C
    7.798999   -8.596173  122.271991        C
    7.798999   -8.596173  145.631991        C
    7.798999   -8.596173  168.991991        C
    7.798999   -8.596173  192.351991        C
    7.798999   -8.596173  215.711991        C
    7.798999   -8.596173  239.071991        C
    8.507998   -9.824196   28.831991        C
    8.507998   -9.824196   52.191991        C
    8.507998   -9.824196   75.551991        C
    8.507998   -9.824196   98.911991        C
    8.507998   -9.824196  122.271991        C
    8.507998   -9.824196  145.631991        C
    8.507998   -9.824196  168.991991        C
    8.507998   -9.824196  192.351991        C
    8.507998   -9.824196  215.711991        C
    8.507998   -9.824196  239.071991        C
    3.544996    3.684068   28.831991        C
    3.544996    3.684068   52.191991        C
    3.544996    3.684068   75.551991        C
    3.544996    3.684068   98.911991        C
    3.544996    3.684068  122.271991        C
    3.544996    3.684068  145.631991        C
    3.544996    3.684068  168.991991        C
    3.544996    3.684068  192.351991        C
    3.544996    3.684068  215.711991        C
    3.544996    3.684068  239.071991        C
    4.253996    2.456046   28.831991        C
    4.253996    2.456046   52.191991        C
    4.253996    2.456046   75.551991        C
    4.253996    2.456046   98.911991        C
    4.253996    2.456046  122.271991        C
    4.253996    2.456046  145.631991        C
    4.253996    2.456046  168.991991        C
    4.253996    2.456046  192.351991        C
    4.253996    2.456046  215.711991        C
    4.253996    2.456046  239.071991        C
    5.671994    2.456046   28.831991        C
    5.671994    2.456046   52.191991        C
    5.671994    2.456046   75.551991        C
    5.671994    2.456046   98.911991        C
    5.671994    2.456046  122.271991        C
    5.671994    2.456046  145.631991        C
    5.671994    2.456046  168.991991        C
    5.671994    2.456046  192.351991        C
    5.671994    2.456046  215.711991        C
    5.671994    2.456046  239.071991        C
    6.380994    1.228023   28.831991        C
    6.380994    1.228023   52.191991        C
    6.380994    1.228023   75.551991        C
    6.380994    1.228023   98.911991        C
    6.380994    1.228023  122.271991        C
    6.380994    1.228023  145.631991        C
    6.380994    1.228023  168.991991        C
    6.380994    1.228023  192.351991        C
    6.380994    1.228023  215.711991        C
    6.380994    1.228023  239.071991        C
    7.799001    1.228035   28.831991        C
    7.799001    1.228035   52.191991        C
    7.799001    1.228035   75.551991        C
    7.799001    1.228035   98.911991        C
    7.799001    1.228035  122.271991        C
    7.799001    1.228035  145.631991        C
    7.799001    1.228035  168.991991        C
    7.799001    1.228035  192.351991        C
    7.799001    1.228035  215.711991        C
    7.799001    1.228035  239.071991        C
    8.508006   -0.000001   28.831991        C
    8.508006   -0.000001   52.191991        C
    8.508006   -0.000001   75.551991        C
    8.508006   -0.000001   98.911991        C
    8.508006   -0.000001  122.271991        C
    8.508006   -0.000001  145.631991        C
    8.508006   -0.000001  168.991991        C
    8.508006   -0.000001  192.351991        C
    8.508006   -0.000001  215.711991        C
    8.508006   -0.000001  239.071991        C
    9.926005   -0.000001   28.831991        C
    9.926005   -0.000001   52.191991        C
    9.926005   -0.000001   75.551991        C
    9.926005   -0.000001   98.911991        C
    9.926005   -0.000001  122.271991        C
    9.926005   -0.000001  145.631991        C
    9.926005   -0.000001  168.991991        C
    9.926005   -0.000001  192.351991        C
    9.926005   -0.000001  215.711991        C
    9.926005   -0.000001  239.071991        C
   10.635004   -1.228024   28.831991        C
   10.635004   -1.228024   52.191991        C
   10.635004   -1.228024   75.551991        C
   10.635004   -1.228024   98.911991        C
   10.635004   -1.228024  122.271991        C
   10.635004   -1.228024  145.631991        C
   10.635004   -1.228024  168.991991        C
   10.635004   -1.228024  192.351991        C
   10.635004   -1.228024  215.711991        C
   10.635004   -1.228024  239.071991        C
   12.053003   -1.228024   28.831991        C
   12.053003   -1.228024   52.191991        C
   12.053003   -1.228024   75.551991        C
   12.053003   -1.228024   98.911991        C
   12.053003   -1.228024  122.271991        C
   12.053003   -1.228024  145.631991        C
   12.053003   -1.228024  168.991991        C
   12.053003   -1.228024  192.351991        C
   12.053003   -1.228024  215.711991        C
   12.053003   -1.228024  239.071991        C
   12.762002   -2.456047   28.831991        C
   12.762002   -2.456047   52.191991        C
   12.762002   -2.456047   75.551991        C
   12.762002   -2.456047   98.911991        C
   12.762002   -2.456047  122.271991        C
   12.762002   -2.456047  145.631991        C
   12.762002   -2.456047  168.991991        C
   12.762002   -2.456047  192.351991        C
   12.762002   -2.456047  215.711991        C
   12.762002   -2.456047  239.071991        C
    7.799001   11.052217   28.831991        C
    7.799001   11.052217   52.191991        C
    7.799001   11.052217   75.551991        C
    7.799001   11.052217   98.911991        C
    7.799001   11.052217  122.271991        C
    7.799001   11.052217  145.631991        C
    7.799001   11.052217  168.991991        C
    7.799001   11.052217  192.351991        C
    7.799001   11.052217  215.711991        C
    7.799001   11.052217  239.071991        C
    8.508000    9.824194   28.831991        C
    8.508000    9.824194   52.191991        C
    8.508000    9.824194   75.551991        C
    8.508000    9.824194   98.911991        C
    8.508000    9.824194  122.271991        C
    8.508000    9.824194  145.631991        C
    8.508000    9.824194  168.991991        C
    8.508000    9.824194  192.351991        C
    8.508000    9.824194  215.711991        C
    8.508000    9.824194  239.071991        C
    1.417999   -2.456046   28.831991        C
    1.417999   -2.456046   52.191991        C
    1.417999   -2.456046   75.551991        C
    1.417999   -2.456046   98.911991        C
    1.417999   -2.456046  122.271991        C
    1.417999   -2.456046  145.631991        C
    1.417999   -2.456046  168.991991        C
    1.417999   -2.456046  192.351991        C
    1.417999   -2.456046  215.711991        C
    1.417999   -2.456046  239.071991        C
    2.126998   -3.684068   28.831991        C
    2.126998   -3.684068   52.191991        C
    2.126998   -3.684068   75.551991        C
    2.126998   -3.684068   98.911991        C
    2.126998   -3.684068  122.271991        C
    2.126998   -3.684068  145.631991        C
    2.126998   -3.684068  168.991991        C
    2.126998   -3.684068  192.351991        C
    2.126998   -3.684068  215.711991        C
    2.126998   -3.684068  239.071991        C
    3.544996   -3.684068   28.831991        C
    3.544996   -3.684068   52.191991        C
    3.544996   -3.684068   75.551991        C
    3.544996   -3.684068   98.911991        C
    3.544996   -3.684068  122.271991        C
    3.544996   -3.684068  145.631991        C
    3.544996   -3.684068  168.991991        C
    3.544996   -3.684068  192.351991        C
    3.544996   -3.684068  215.711991        C
    3.544996   -3.684068  239.071991        C
    4.253996   -4.912091   28.831991        C
    4.253996   -4.912091   52.191991        C
    4.253996   -4.912091   75.551991        C
    4.253996   -4.912091   98.911991        C
    4.253996   -4.912091  122.271991        C
    4.253996   -4.912091  145.631991        C
    4.253996   -4.912091  168.991991        C
    4.253996   -4.912091  192.351991        C
    4.253996   -4.912091  215.711991        C
    4.253996   -4.912091  239.071991        C
    5.672001   -4.912105   28.831991        C
    5.672001   -4.912105   52.191991        C
    5.672001   -4.912105   75.551991        C
    5.672001   -4.912105   98.911991        C
    5.672001   -4.912105  122.271991        C
    5.672001   -4.912105  145.631991        C
    5.672001   -4.912105  168.991991        C
    5.672001   -4.912105  192.351991        C
    5.672001   -4.912105  215.711991        C
    5.672001   -4.912105  239.071991        C
    6.381000   -6.140127   28.831991        C
    6.381000   -6.140127   52.191991        C
    6.381000   -6.140127   75.551991        C
    6.381000   -6.140127   98.911991        C
    6.381000   -6.140127  122.271991        C
    6.381000   -6.140127  145.631991        C
    6.381000   -6.140127  168.991991        C
    6.381000   -6.140127  192.351991        C
    6.381000   -6.140127  215.711991        C
    6.381000   -6.140127  239.071991        C
    7.798999   -6.140127   28.831991        C
    7.798999   -6.140127   52.191991        C
    7.798999   -6.140127   75.551991        C
    7.798999   -6.140127   98.911991        C
    7.798999   -6.140127  122.271991        C
    7.798999   -6.140127  145.631991        C
    7.798999   -6.140127  168.991991        C
    7.798999   -6.140127  192.351991        C
    7.798999   -6.140127  215.711991        C
    7.798999   -6.140127  239.071991        C
    8.507998   -7.368150   28.831991        C
    8.507998   -7.368150   52.191991        C
    8.507998   -7.368150   75.551991        C
    8.507998   -7.368150   98.911991        C
    8.507998   -7.368150  122.271991        C
    8.507998   -7.368150  145.631991        C
    8.507998   -7.368150  168.991991        C
    8.507998   -7.368150  192.351991        C
    8.507998   -7.368150  215.711991        C
    8.507998   -7.368150  239.071991        C
    9.925996   -7.368150   28.831991        C
    9.925996   -7.368150   52.191991        C
    9.925996   -7.368150   75.551991        C
    9.925996   -7.368150   98.911991        C
    9.925996   -7.368150  122.271991        C
    9.925996   -7.368150  145.631991        C
    9.925996   -7.368150  168.991991        C
    9.925996   -7.368150  192.351991        C
    9.925996   -7.368150  215.711991        C
    9.925996   -7.368150  239.071991        C
    4.253996    4.912091   28.831991        C
    4.253996    4.912091   52.191991        C
    4.253996    4.912091   75.551991        C
    4.253996    4.912091   98.911991        C
    4.253996    4.912091  122.271991        C
    4.253996    4.912091  145.631991        C
    4.253996    4.912091  168.991991        C
    4.253996    4.912091  192.351991        C
    4.253996    4.912091  215.711991        C
    4.253996    4.912091  239.071991        C
    5.672003    4.912103   28.831991        C
    5.672003    4.912103   52.191991        C
    5.672003    4.912103   75.551991        C
    5.672003    4.912103   98.911991        C
    5.672003    4.912103  122.271991        C
    5.672003    4.912103  145.631991        C
    5.672003    4.912103  168.991991        C
    5.672003    4.912103  192.351991        C
    5.672003    4.912103  215.711991        C
    5.672003    4.912103  239.071991        C
    6.381002    3.684081   28.831991        C
    6.381002    3.684081   52.191991        C
    6.381002    3.684081   75.551991        C
    6.381002    3.684081   98.911991        C
    6.381002    3.684081  122.271991        C
    6.381002    3.684081  145.631991        C
    6.381002    3.684081  168.991991        C
    6.381002    3.684081  192.351991        C
    6.381002    3.684081  215.711991        C
    6.381002    3.684081  239.071991        C
    7.799001    3.684081   28.831991        C
    7.799001    3.684081   52.191991        C
    7.799001    3.684081   75.551991        C
    7.799001    3.684081   98.911991        C
    7.799001    3.684081  122.271991        C
    7.799001    3.684081  145.631991        C
    7.799001    3.684081  168.991991        C
    7.799001    3.684081  192.351991        C
    7.799001    3.684081  215.711991        C
    7.799001    3.684081  239.071991        C
    8.508000    2.456058   28.831991        C
    8.508000    2.456058   52.191991        C
    8.508000    2.456058   75.551991        C
    8.508000    2.456058   98.911991        C
    8.508000    2.456058  122.271991        C
    8.508000    2.456058  145.631991        C
    8.508000    2.456058  168.991991        C
    8.508000    2.456058  192.351991        C
    8.508000    2.456058  215.711991        C
    8.508000    2.456058  239.071991        C
    9.926005    2.456044   28.831991        C
    9.926005    2.456044   52.191991        C
    9.926005    2.456044   75.551991        C
    9.926005    2.456044   98.911991        C
    9.926005    2.456044  122.271991        C
    9.926005    2.456044  145.631991        C
    9.926005    2.456044  168.991991        C
    9.926005    2.456044  192.351991        C
    9.926005    2.456044  215.711991        C
    9.926005    2.456044  239.071991        C
   10.635004    1.228022   28.831991        C
   10.635004    1.228022   52.191991        C
   10.635004    1.228022   75.551991        C
   10.635004    1.228022   98.911991        C
   10.635004    1.228022  122.271991        C
   10.635004    1.228022  145.631991        C
   10.635004    1.228022  168.991991        C
   10.635004    1.228022  192.351991        C
   10.635004    1.228022  215.711991        C
   10.635004    1.228022  239.071991        C
   12.053003    1.228022   28.831991        C
   12.053003    1.228022   52.191991        C
   12.053003    1.228022   75.551991        C
   12.053003    1.228022   98.911991        C
   12.053003    1.228022  122.271991        C
   12.053003    1.228022  145.631991        C
   12.053003    1.228022  168.991991        C
   12.053003    1.228022  192.351991        C
   12.053003    1.228022  215.711991        C
   12.053003    1.228022  239.071991        C
   12.762002   -0.000001   28.831991        C
   12.762002   -0.000001   52.191991        C
   12.762002   -0.000001   75.551991        C
   12.762002   -0.000001   98.911991        C
   12.762002   -0.000001  122.271991        C
   12.762002   -0.000001  145.631991        C
   12.762002   -0.000001  168.991991        C
   12.762002   -0.000001  192.351991        C
   12.762002   -0.000001  215.711991        C
   12.762002   -0.000001  239.071991        C
   14.180001   -0.000001   28.831991        C
   14.180001   -0.000001   52.191991        C
   14.180001   -0.000001   75.551991        C
   14.180001   -0.000001   98.911991        C
   14.180001   -0.000001  122.271991        C
   14.180001   -0.000001  145.631991        C
   14.180001   -0.000001  168.991991        C
   14.180001   -0.000001  192.351991        C
   14.180001   -0.000001  215.711991        C
   14.180001   -0.000001  239.071991        C
    0.000000    0.000000   28.831991        C
    0.000000    0.000000   52.191991        C
    0.000000    0.000000   75.551991        C
    0.000000    0.000000   98.911991        C
    0.000000    0.000000  122.271991        C
    0.000000    0.000000  145.631991        C
    0.000000    0.000000  168.991991        C
    0.000000    0.000000  192.351991        C
    0.000000    0.000000  215.711991        C
    0.000000    0.000000  239.071991        C
    1.417999    0.000000   28.831991        C
    1.417999    0.000000   52.191991        C
    1.417999    0.000000   75.551991        C
    1.417999    0.000000   98.911991        C
    1.417999    0.000000  122.271991        C
    1.417999    0.000000  145.631991        C
    1.417999    0.000000  168.991991        C
    1.417999    0.000000  192.351991        C
    1.417999    0.000000  215.711991        C
    1.417999    0.000000  239.071991        C
    2.126998   -1.228023   28.831991        C
    2.126998   -1.228023   52.191991        C
    2.126998   -1.228023   75.551991        C
    2.126998   -1.228023   98.911991        C
    2.126998   -1.228023  122.271991        C
    2.126998   -1.228023  145.631991        C
    2.126998   -1.228023  168.991991        C
    2.126998   -1.228023  192.351991        C
    2.126998   -1.228023  215.711991        C
    2.126998   -1.228023  239.071991        C
    3.544996   -1.228023   28.831991        C
    3.544996   -1.228023   52.191991        C
    3.544996   -1.228023   75.551991        C
    3.544996   -1.228023   98.911991        C
    3.544996   -1.228023  122.271991        C
    3.544996   -1.228023  145.631991        C
    3.544996   -1.228023  168.991991        C
    3.544996   -1.228023  192.351991        C
    3.544996   -1.228023  215.711991        C
    3.544996   -1.228023  239.071991        C
    4.253996   -2.456046   28.831991        C
    4.253996   -2.456046   52.191991        C
    4.253996   -2.456046   75.551991        C
    4.253996   -2.456046   98.911991        C
    4.253996   -2.456046  122.271991        C
    4.253996   -2.456046  145.631991        C
    4.253996   -2.456046  168.991991        C
    4.253996   -2.456046  192.351991        C
    4.253996   -2.456046  215.711991        C
    4.253996   -2.456046  239.071991        C
    5.671994   -2.456046   28.831991        C
    5.671994   -2.456046   52.191991        C
    5.671994   -2.456046   75.551991        C
    5.671994   -2.456046   98.911991        C
    5.671994   -2.456046  122.271991        C
    5.671994   -2.456046  145.631991        C
    5.671994   -2.456046  168.991991        C
    5.671994   -2.456046  192.351991        C
    5.671994   -2.456046  215.711991        C
    5.671994   -2.456046  239.071991        C
    6.381000   -3.684082   28.831991        C
    6.381000   -3.684082   52.191991        C
    6.381000   -3.684082   75.551991        C
    6.381000   -3.684082   98.911991        C
    6.381000   -3.684082  122.271991        C
    6.381000   -3.684082  145.631991        C
    6.381000   -3.684082  168.991991        C
    6.381000   -3.684082  192.351991        C
    6.381000   -3.684082  215.711991        C
    6.381000   -3.684082  239.071991        C
    7.798999   -3.684082   28.831991        C
    7.798999   -3.684082   52.191991        C
    7.798999   -3.684082   75.551991        C
    7.798999   -3.684082   98.911991        C
    7.798999   -3.684082  122.271991        C
    7.798999   -3.684082  145.631991        C
    7.798999   -3.684082  168.991991        C
    7.798999   -3.684082  192.351991        C
    7.798999   -3.684082  215.711991        C
    7.798999   -3.684082  239.071991        C
    8.507998   -4.912105   28.831991        C
    8.507998   -4.912105   52.191991        C
    8.507998   -4.912105   75.551991        C
    8.507998   -4.912105   98.911991        C
    8.507998   -4.912105  122.271991        C
    8.507998   -4.912105  145.631991        C
    8.507998   -4.912105  168.991991        C
    8.507998   -4.912105  192.351991        C
    8.507998   -4.912105  215.711991        C
    8.507998   -4.912105  239.071991        C
    9.926005   -4.912092   28.831991        C
    9.926005   -4.912092   52.191991        C
    9.926005   -4.912092   75.551991        C
    9.926005   -4.912092   98.911991        C
    9.926005   -4.912092  122.271991        C
    9.926005   -4.912092  145.631991        C
    9.926005   -4.912092  168.991991        C
    9.926005   -4.912092  192.351991        C
    9.926005   -4.912092  215.711991        C
    9.926005   -4.912092  239.071991        C
   10.635004   -6.140115   28.831991        C
   10.635004   -6.140115   52.191991        C
   10.635004   -6.140115   75.551991        C
   10.635004   -6.140115   98.911991        C
   10.635004   -6.140115  122.271991        C
   10.635004   -6.140115  145.631991        C
   10.635004   -6.140115  168.991991        C
   10.635004   -6.140115  192.351991        C
   10.635004   -6.140115  215.711991        C
   10.635004   -6.140115  239.071991        C
    5.672003    7.368149   28.831991        C
    5.672003    7.368149   52.191991        C
    5.672003    7.368149   75.551991        C
    5.672003    7.368149   98.911991        C
    5.672003    7.368149  122.271991        C
    5.672003    7.368149  145.631991        C
    5.672003    7.368149  168.991991        C
    5.672003    7.368149  192.351991        C
    5.672003    7.368149  215.711991        C
    5.672003    7.368149  239.071991        C
    6.381002    6.140126   28.831991        C
    6.381002    6.140126   52.191991        C
    6.381002    6.140126   75.551991        C
    6.381002    6.140126   98.911991        C
    6.381002    6.140126  122.271991        C
    6.381002    6.140126  145.631991        C
    6.381002    6.140126  168.991991        C
    6.381002    6.140126  192.351991        C
    6.381002    6.140126  215.711991        C
    6.381002    6.140126  239.071991        C
    7.799001    6.140126   28.831991        C
    7.799001    6.140126   52.191991        C
    7.799001    6.140126   75.551991        C
    7.799001    6.140126   98.911991        C
    7.799001    6.140126  122.271991        C
    7.799001    6.140126  145.631991        C
    7.799001    6.140126  168.991991        C
    7.799001    6.140126  192.351991        C
    7.799001    6.140126  215.711991        C
    7.799001    6.140126  239.071991        C
    8.508000    4.912103   28.831991        C
    8.508000    4.912103   52.191991        C
    8.508000    4.912103   75.551991        C
    8.508000    4.912103   98.911991        C
    8.508000    4.912103  122.271991        C
    8.508000    4.912103  145.631991        C
    8.508000    4.912103  168.991991        C
    8.508000    4.912103  192.351991        C
    8.508000    4.912103  215.711991        C
    8.508000    4.912103  239.071991        C
    9.925999    4.912103   28.831991        C
    9.925999    4.912103   52.191991        C
    9.925999    4.912103   75.551991        C
    9.925999    4.912103   98.911991        C
    9.925999    4.912103  122.271991        C
    9.925999    4.912103  145.631991        C
    9.925999    4.912103  168.991991        C
    9.925999    4.912103  192.351991        C
    9.925999    4.912103  215.711991        C
    9.925999    4.912103  239.071991        C
   10.635004    3.684067   28.831991        C
   10.635004    3.684067   52.191991        C
   10.635004    3.684067   75.551991        C
   10.635004    3.684067   98.911991        C
   10.635004    3.684067  122.271991        C
   10.635004    3.684067  145.631991        C
   10.635004    3.684067  168.991991        C
   10.635004    3.684067  192.351991        C
   10.635004    3.684067  215.711991        C
   10.635004    3.684067  239.071991        C
   12.053003    3.684067   28.831991        C
   12.053003    3.684067   52.191991        C
   12.053003    3.684067   75.551991        C
   12.053003    3.684067   98.911991        C
   12.053003    3.684067  122.271991        C
   12.053003    3.684067  145.631991        C
   12.053003    3.684067  168.991991        C
   12.053003    3.684067  192.351991        C
   12.053003    3.684067  215.711991        C
   12.053003    3.684067  239.071991        C
   12.762002    2.456044   28.831991        C
   12.762002    2.456044   52.191991        C
   12.762002    2.456044   75.551991        C
   12.762002    2.456044   98.911991        C
   12.762002    2.456044  122.271991        C
   12.762002    2.456044  145.631991        C