POSCAR for generated by WannierTools
1.0
    2.130422   -6.150000    0.000000
    4.260845    4.920000    0.000000
    0.000000    0.000000  267.200000
C     
   420
Direct
    0.142857    0.428571    0.037425        C
    0.333333    0.666667    0.037425        C
    0.571429    0.714286    0.037425        C
    0.761905    0.952381    0.037425        C
    0.000000    0.000000    0.037425        C
    0.190476    0.238095    0.037425        C
    0.428571    0.285714    0.037425        C
    0.619048    0.523810    0.037425        C
    0.857143    0.571429    0.037425        C
    0.047619    0.809524    0.037425        C
    0.285714    0.857143    0.037425        C
    0.476190    0.095238    0.037425        C
    0.714286    0.142857    0.037425        C
    0.904762    0.380952    0.037425        C
    0.428571    0.142857    0.050000        C
    0.666667    0.333333    0.050000        C
    0.857143    0.285714    0.050000        C
    0.095238    0.476190    0.050000        C
    0.285714    0.428571    0.050000        C
    0.523810    0.619048    0.050000        C
    0.714286    0.571429    0.050000        C
    0.952381    0.761905    0.050000        C
    0.142857    0.714286    0.050000        C
    0.380952    0.904762    0.050000        C
    0.571429    0.857143    0.050000        C
    0.809524    0.047619    0.050000        C
    0.000000    0.000000    0.050000        C
    0.238095    0.190476    0.050000        C
    0.190476    0.952381    0.062575        C
    0.428571    0.142857    0.062575        C
    0.619048    0.095238    0.062575        C
    0.857143    0.285714    0.062575        C
    0.047619    0.238095    0.062575        C
    0.285714    0.428571    0.062575        C
    0.476190    0.380952    0.062575        C
    0.714286    0.571429    0.062575        C
    0.904762    0.523810    0.062575        C
    0.142857    0.714286    0.062575        C
    0.333333    0.666667    0.062575        C
    0.571429    0.857143    0.062575        C
    0.761905    0.809524    0.062575        C
    0.000000    0.000000    0.062575        C
    0.142857    0.428571    0.137425        C
    0.333333    0.666667    0.137425        C
    0.571429    0.714286    0.137425        C
    0.761905    0.952381    0.137425        C
    0.000000    0.000000    0.137425        C
    0.190476    0.238095    0.137425        C
    0.428571    0.285714    0.137425        C
    0.619048    0.523810    0.137425        C
    0.857143    0.571429    0.137425        C
    0.047619    0.809524    0.137425        C
    0.285714    0.857143    0.137425        C
    0.476190    0.095238    0.137425        C
    0.714286    0.142857    0.137425        C
    0.904762    0.380952    0.137425        C
    0.428571    0.142857    0.150000        C
    0.666667    0.333333    0.150000        C
    0.857143    0.285714    0.150000        C
    0.095238    0.476190    0.150000        C
    0.285714    0.428571    0.150000        C
    0.523810    0.619048    0.150000        C
    0.714286    0.571429    0.150000        C
    0.952381    0.761905    0.150000        C
    0.142857    0.714286    0.150000        C
    0.380952    0.904762    0.150000        C
    0.571429    0.857143    0.150000        C
    0.809524    0.047619    0.150000        C
    0.000000    0.000000    0.150000        C
    0.238095    0.190476    0.150000        C
    0.190476    0.952381    0.162575        C
    0.428571    0.142857    0.162575        C
    0.619048    0.095238    0.162575        C
    0.857143    0.285714    0.162575        C
    0.047619    0.238095    0.162575        C
    0.285714    0.428571    0.162575        C
    0.476190    0.380952    0.162575        C
    0.714286    0.571429    0.162575        C
    0.904762    0.523810    0.162575        C
    0.142857    0.714286    0.162575        C
    0.333333    0.666667    0.162575        C
    0.571429    0.857143    0.162575        C
    0.761905    0.809524    0.162575        C
    0.000000    0.000000    0.162575        C
    0.142857    0.428571    0.237425        C
    0.333333    0.666667    0.237425        C
    0.571429    0.714286    0.237425        C
    0.761905    0.952381    0.237425        C
    0.000000    0.000000    0.237425        C
    0.190476    0.238095    0.237425        C
    0.428571    0.285714    0.237425        C
    0.619048    0.523810    0.237425        C
    0.857143    0.571429    0.237425        C
    0.047619    0.809524    0.237425        C
    0.285714    0.857143    0.237425        C
    0.476190    0.095238    0.237425        C
    0.714286    0.142857    0.237425        C
    0.904762    0.380952    0.237425        C
    0.428571    0.142857    0.250000        C
    0.666667    0.333333    0.250000        C
    0.857143    0.285714    0.250000        C
    0.095238    0.476190    0.250000        C
    0.285714    0.428571    0.250000        C
    0.523810    0.619048    0.250000        C
    0.714286    0.571429    0.250000        C
    0.952381    0.761905    0.250000        C
    0.142857    0.714286    0.250000        C
    0.380952    0.904762    0.250000        C
    0.571429    0.857143    0.250000        C
    0.809524    0.047619    0.250000        C
    0.000000    0.000000    0.250000        C
    0.238095    0.190476    0.250000        C
    0.190476    0.952381    0.262575        C
    0.428571    0.142857    0.262575        C
    0.619048    0.095238    0.262575        C
    0.857143    0.285714    0.262575        C
    0.047619    0.238095    0.262575        C
    0.285714    0.428571    0.262575        C
    0.476190    0.380952    0.262575        C
    0.714286    0.571429    0.262575        C
    0.904762    0.523810    0.262575        C
    0.142857    0.714286    0.262575        C
    0.333333    0.666667    0.262575        C
    0.571429    0.857143    0.262575        C
    0.761905    0.809524    0.262575        C
    0.000000    0.000000    0.262575        C
    0.142857    0.428571    0.337425        C
    0.333333    0.666667    0.337425        C
    0.571429    0.714286    0.337425        C
    0.761905    0.952381    0.337425        C
    0.000000    0.000000    0.337425        C
    0.190476    0.238095    0.337425        C
    0.428571    0.285714    0.337425        C
    0.619048    0.523810    0.337425        C
    0.857143    0.571429    0.337425        C
    0.047619    0.809524    0.337425        C
    0.285714    0.857143    0.337425        C
    0.476190    0.095238    0.337425        C
    0.714286    0.142857    0.337425        C
    0.904762    0.380952    0.337425        C
    0.428571    0.142857    0.350000        C
    0.666667    0.333333    0.350000        C
    0.857143    0.285714    0.350000        C
    0.095238    0.476190    0.350000        C
    0.285714    0.428571    0.350000        C
    0.523810    0.619048    0.350000        C
    0.714286    0.571429    0.350000        C
    0.952381    0.761905    0.350000        C
    0.142857    0.714286    0.350000        C
    0.380952    0.904762    0.350000        C
    0.571429    0.857143    0.350000        C
    0.809524    0.047619    0.350000        C
    0.000000    0.000000    0.350000        C
    0.238095    0.190476    0.350000        C
    0.190476    0.952381    0.362575        C
    0.428571    0.142857    0.362575        C
    0.619048    0.095238    0.362575        C
    0.857143    0.285714    0.362575        C
    0.047619    0.238095    0.362575        C
    0.285714    0.428571    0.362575        C
    0.476190    0.380952    0.362575        C
    0.714286    0.571429    0.362575        C
    0.904762    0.523810    0.362575        C
    0.142857    0.714286    0.362575        C
    0.333333    0.666667    0.362575        C
    0.571429    0.857143    0.362575        C
    0.761905    0.809524    0.362575        C
    0.000000    0.000000    0.362575        C
    0.142857    0.428571    0.437425        C
    0.333333    0.666667    0.437425        C
    0.571429    0.714286    0.437425        C
    0.761905    0.952381    0.437425        C
    0.000000    0.000000    0.437425        C
    0.190476    0.238095    0.437425        C
    0.428571    0.285714    0.437425        C
    0.619048    0.523810    0.437425        C
    0.857143    0.571429    0.437425        C
    0.047619    0.809524    0.437425        C
    0.285714    0.857143    0.437425        C
    0.476190    0.095238    0.437425        C
    0.714286    0.142857    0.437425        C
    0.904762    0.380952    0.437425        C
    0.428571    0.142857    0.450000        C
    0.666667    0.333333    0.450000        C
    0.857143    0.285714    0.450000        C
    0.095238    0.476190    0.450000        C
    0.285714    0.428571    0.450000        C
    0.523810    0.619048    0.450000        C
    0.714286    0.571429    0.450000        C
    0.952381    0.761905    0.450000        C
    0.142857    0.714286    0.450000        C
    0.380952    0.904762    0.450000        C
    0.571429    0.857143    0.450000        C
    0.809524    0.047619    0.450000        C
    0.000000    0.000000    0.450000        C
    0.238095    0.190476    0.450000        C
    0.190476    0.952381    0.462575        C
    0.428571    0.142857    0.462575        C
    0.619048    0.095238    0.462575        C
    0.857143    0.285714    0.462575        C
    0.047619    0.238095    0.462575        C
    0.285714    0.428571    0.462575        C
    0.476190    0.380952    0.462575        C
    0.714286    0.571429    0.462575        C
    0.904762    0.523810    0.462575        C
    0.142857    0.714286    0.462575        C
    0.333333    0.666667    0.462575        C
    0.571429    0.857143    0.462575        C
    0.761905    0.809524    0.462575        C
    0.000000    0.000000    0.462575        C
    0.142857    0.428571    0.537425        C
    0.333333    0.666667    0.537425        C
    0.571429    0.714286    0.537425        C
    0.761905    0.952381    0.537425        C
    0.000000    0.000000    0.537425        C
    0.190476    0.238095    0.537425        C
    0.428571    0.285714    0.537425        C
    0.619048    0.523810    0.537425        C
    0.857143    0.571429    0.537425        C
    0.047619    0.809524    0.537425        C
    0.285714    0.857143    0.537425        C
    0.476190    0.095238    0.537425        C
    0.714286    0.142857    0.537425        C
    0.904762    0.380952    0.537425        C
    0.428571    0.142857    0.550000        C
    0.666667    0.333333    0.550000        C
    0.857143    0.285714    0.550000        C
    0.095238    0.476190    0.550000        C
    0.285714    0.428571    0.550000        C
    0.523810    0.619048    0.550000        C
    0.714286    0.571429    0.550000        C
    0.952381    0.761905    0.550000        C
    0.142857    0.714286    0.550000        C
    0.380952    0.904762    0.550000        C
    0.571429    0.857143    0.550000        C
    0.809524    0.047619    0.550000        C
    0.000000    0.000000    0.550000        C
    0.238095    0.190476    0.550000        C
    0.190476    0.952381    0.562575        C
    0.428571    0.142857    0.562575        C
    0.619048    0.095238    0.562575        C
    0.857143    0.285714    0.562575        C
    0.047619    0.238095    0.562575        C
    0.285714    0.428571    0.562575        C
    0.476190    0.380952    0.562575        C
    0.714286    0.571429    0.562575        C
    0.904762    0.523810    0.562575        C
    0.142857    0.714286    0.562575        C
    0.333333    0.666667    0.562575        C
    0.571429    0.857143    0.562575        C
    0.761905    0.809524    0.562575        C
    0.000000    0.000000    0.562575        C
    0.142857    0.428571    0.637425        C
    0.333333    0.666667    0.637425        C
    0.571429    0.714286    0.637425        C
    0.761905    0.952381    0.637425        C
    0.000000    0.000000    0.637425        C
    0.190476    0.238095    0.637425        C
    0.428571    0.285714    0.637425        C
    0.619048    0.523810    0.637425        C
    0.857143    0.571429    0.637425        C
    0.047619    0.809524    0.637425        C
    0.285714    0.857143    0.637425        C
    0.476190    0.095238    0.637425        C
    0.714286    0.142857    0.637425        C
    0.904762    0.380952    0.637425        C
    0.428571    0.142857    0.650000        C
    0.666667    0.333333    0.650000        C
    0.857143    0.285714    0.650000        C
    0.095238    0.476190    0.650000        C
    0.285714    0.428571    0.650000        C
    0.523810    0.619048    0.650000        C
    0.714286    0.571429    0.650000        C
    0.952381    0.761905    0.650000        C
    0.142857    0.714286    0.650000        C
    0.380952    0.904762    0.650000        C
    0.571429    0.857143    0.650000        C
    0.809524    0.047619    0.650000        C
    0.000000    0.000000    0.650000        C
    0.238095    0.190476    0.650000        C
    0.190476    0.952381    0.662575        C
    0.428571    0.142857    0.662575        C
    0.619048    0.095238    0.662575        C
    0.857143    0.285714    0.662575        C
    0.047619    0.238095    0.662575        C
    0.285714    0.428571    0.662575        C
    0.476190    0.380952    0.662575        C
    0.714286    0.571429    0.662575        C
    0.904762    0.523810    0.662575        C
    0.142857    0.714286    0.662575        C
    0.333333    0.666667    0.662575        C
    0.571429    0.857143    0.662575        C
    0.761905    0.809524    0.662575        C
    0.000000    0.000000    0.662575        C
    0.142857    0.428571    0.737425        C
    0.333333    0.666667    0.737425        C
    0.571429    0.714286    0.737425        C
    0.761905    0.952381    0.737425        C
    0.000000    0.000000    0.737425        C
    0.190476    0.238095    0.737425        C
    0.428571    0.285714    0.737425        C
    0.619048    0.523810    0.737425        C
    0.857143    0.571429    0.737425        C
    0.047619    0.809524    0.737425        C
    0.285714    0.857143    0.737425        C
    0.476190    0.095238    0.737425        C
    0.714286    0.142857    0.737425        C
    0.904762    0.380952    0.737425        C
    0.428571    0.142857    0.750000        C
    0.666667    0.333333    0.750000        C
    0.857143    0.285714    0.750000        C
    0.095238    0.476190    0.750000        C
    0.285714    0.428571    0.750000        C
    0.523810    0.619048    0.750000        C
    0.714286    0.571429    0.750000        C
    0.952381    0.761905    0.750000        C
    0.142857    0.714286    0.750000        C
    0.380952    0.904762    0.750000        C
    0.571429    0.857143    0.750000        C
    0.809524    0.047619    0.750000        C
    0.000000    0.000000    0.750000        C
    0.238095    0.190476    0.750000        C
    0.190476    0.952381    0.762575        C
    0.428571    0.142857    0.762575        C
    0.619048    0.095238    0.762575        C
    0.857143    0.285714    0.762575        C
    0.047619    0.238095    0.762575        C
    0.285714    0.428571    0.762575        C
    0.476190    0.380952    0.762575        C
    0.714286    0.571429    0.762575        C
    0.904762    0.523810    0.762575        C
    0.142857    0.714286    0.762575        C
    0.333333    0.666667    0.762575        C
    0.571429    0.857143    0.762575        C
    0.761905    0.809524    0.762575        C
    0.000000    0.000000    0.762575        C
    0.142857    0.428571    0.837425        C
    0.333333    0.666667    0.837425        C
    0.571429    0.714286    0.837425        C
    0.761905    0.952381    0.837425        C
    0.000000    0.000000    0.837425        C
    0.190476    0.238095    0.837425        C
    0.428571    0.285714    0.837425        C
    0.619048    0.523810    0.837425        C
    0.857143    0.571429    0.837425        C
    0.047619    0.809524    0.837425        C
    0.285714    0.857143    0.837425        C
    0.476190    0.095238    0.837425        C
    0.714286    0.142857    0.837425        C
    0.904762    0.380952    0.837425        C
    0.428571    0.142857    0.850000        C
    0.666667    0.333333    0.850000        C
    0.857143    0.285714    0.850000        C
    0.095238    0.476190    0.850000        C
    0.285714    0.428571    0.850000        C
    0.523810    0.619048    0.850000        C
    0.714286    0.571429    0.850000        C
    0.952381    0.761905    0.850000        C
    0.142857    0.714286    0.850000        C
    0.380952    0.904762    0.850000        C
    0.571429    0.857143    0.850000        C
    0.809524    0.047619    0.850000        C
    0.000000    0.000000    0.850000        C
    0.238095    0.190476    0.850000        C
    0.190476    0.952381    0.862575        C
    0.428571    0.142857    0.862575        C
    0.619048    0.095238    0.862575        C
    0.857143    0.285714    0.862575        C
    0.047619    0.238095    0.862575        C
    0.285714    0.428571    0.862575        C
    0.476190    0.380952    0.862575        C
    0.714286    0.571429    0.862575        C
    0.904762    0.523810    0.862575        C
    0.142857    0.714286    0.862575        C
    0.333333    0.666667    0.862575        C
    0.571429    0.857143    0.862575        C
    0.761905    0.809524    0.862575        C
    0.000000    0.000000    0.862575        C
    0.142857    0.428571    0.937425        C
    0.333333    0.666667    0.937425        C
    0.571429    0.714286    0.937425        C
    0.761905    0.952381    0.937425        C
    0.000000    0.000000    0.937425        C
    0.190476    0.238095    0.937425        C
    0.428571    0.285714    0.937425        C
    0.619048    0.523810    0.937425        C
    0.857143    0.571429    0.937425        C
    0.047619    0.809524    0.937425        C
    0.285714    0.857143    0.937425        C
    0.476190    0.095238    0.937425        C
    0.714286    0.142857    0.937425        C
    0.904762    0.380952    0.937425        C
    0.428571    0.142857    0.950000        C
    0.666667    0.333333    0.950000        C
    0.857143    0.285714    0.950000        C
    0.095238    0.476190    0.950000        C
    0.285714    0.428571    0.950000        C
    0.523810    0.619048    0.950000        C
    0.714286    0.571429    0.950000        C
    0.952381    0.761905    0.950000        C
    0.142857    0.714286    0.950000        C
    0.380952    0.904762    0.950000        C
    0.571429    0.857143    0.950000        C
    0.809524    0.047619    0.950000        C
    0.000000    0.000000    0.950000        C
    0.238095    0.190476    0.950000        C
    0.190476    0.952381    0.962575        C
    0.428571    0.142857    0.962575        C
    0.619048    0.095238    0.962575        C
    0.857143    0.285714    0.962575        C
    0.047619    0.238095    0.962575        C
    0.285714    0.428571    0.962575        C
    0.476190    0.380952    0.962575        C
    0.714286    0.571429    0.962575        C
    0.904762    0.523810    0.962575        C
    0.142857    0.714286    0.962575        C
    0.333333    0.666667    0.962575        C
    0.571429    0.857143    0.962575        C
    0.761905    0.809524    0.962575        C
    0.000000    0.000000    0.962575        C
