POSCAR for generated by WannierTools
1.0
    6.381000  -13.508264    0.000000
    8.508000   12.280240    0.000000
    0.000000    0.000000  233.600000
C     
  1480
Direct
    0.648649    0.513514    0.042808        C
    0.738739    0.612613    0.042808        C
    0.837838    0.621622    0.042808        C
    0.927928    0.720721    0.042808        C
    0.027027    0.729730    0.042808        C
    0.117117    0.828829    0.042808        C
    0.216216    0.837838    0.042808        C
    0.306306    0.936937    0.042808        C
    0.405405    0.945946    0.042808        C
    0.495495    0.045045    0.042808        C
    0.594595    0.054054    0.042808        C
    0.684685    0.153153    0.042808        C
    0.783784    0.162162    0.042808        C
    0.873874    0.261261    0.042808        C
    0.972973    0.270270    0.042808        C
    0.063063    0.369369    0.042808        C
    0.162162    0.378378    0.042808        C
    0.252252    0.477477    0.042808        C
    0.351351    0.486486    0.042808        C
    0.441441    0.585586    0.042808        C
    0.540541    0.594595    0.042808        C
    0.630631    0.693694    0.042808        C
    0.729730    0.702703    0.042808        C
    0.819820    0.801802    0.042808        C
    0.918919    0.810811    0.042808        C
    0.009009    0.909910    0.042808        C
    0.108108    0.918919    0.042808        C
    0.198198    0.018018    0.042808        C
    0.297297    0.027027    0.042808        C
    0.387387    0.126126    0.042808        C
    0.486486    0.135135    0.042808        C
    0.576577    0.234234    0.042808        C
    0.675676    0.243243    0.042808        C
    0.765766    0.342342    0.042808        C
    0.864865    0.351351    0.042808        C
    0.954955    0.450450    0.042808        C
    0.054054    0.459459    0.042808        C
    0.144144    0.558559    0.042808        C
    0.243243    0.567568    0.042808        C
    0.333333    0.666667    0.042808        C
    0.432432    0.675676    0.042808        C
    0.522523    0.774775    0.042808        C
    0.621622    0.783784    0.042808        C
    0.711712    0.882883    0.042808        C
    0.810811    0.891892    0.042808        C
    0.900901    0.990991    0.042808        C
    0.000000    0.000000    0.042808        C
    0.090090    0.099099    0.042808        C
    0.189189    0.108108    0.042808        C
    0.279279    0.207207    0.042808        C
    0.378378    0.216216    0.042808        C
    0.468468    0.315315    0.042808        C
    0.567568    0.324324    0.042808        C
    0.657658    0.423423    0.042808        C
    0.756757    0.432432    0.042808        C
    0.846847    0.531532    0.042808        C
    0.945946    0.540541    0.042808        C
    0.036036    0.639640    0.042808        C
    0.135135    0.648649    0.042808        C
    0.225225    0.747748    0.042808        C
    0.324324    0.756757    0.042808        C
    0.414414    0.855856    0.042808        C
    0.513514    0.864865    0.042808        C
    0.603604    0.963964    0.042808        C
    0.702703    0.972973    0.042808        C
    0.792793    0.072072    0.042808        C
    0.891892    0.081081    0.042808        C
    0.981982    0.180180    0.042808        C
    0.081081    0.189189    0.042808        C
    0.171171    0.288288    0.042808        C
    0.270270    0.297297    0.042808        C
    0.360360    0.396396    0.042808        C
    0.459459    0.405405    0.042808        C
    0.549550    0.504505    0.042808        C
    0.513514    0.648649    0.057192        C
    0.612613    0.738739    0.057192        C
    0.702703    0.729730    0.057192        C
    0.801802    0.819820    0.057192        C
    0.891892    0.810811    0.057192        C
    0.990991    0.900901    0.057192        C
    0.081081    0.891892    0.057192        C
    0.180180    0.981982    0.057192        C
    0.270270    0.972973    0.057192        C
    0.369369    0.063063    0.057192        C
    0.459459    0.054054    0.057192        C
    0.558559    0.144144    0.057192        C
    0.648649    0.135135    0.057192        C
    0.747748    0.225225    0.057192        C
    0.837838    0.216216    0.057192        C
    0.936937    0.306306    0.057192        C
    0.027027    0.297297    0.057192        C
    0.126126    0.387387    0.057192        C
    0.216216    0.378378    0.057192        C
    0.315315    0.468468    0.057192        C
    0.405405    0.459459    0.057192        C
    0.504505    0.549550    0.057192        C
    0.594595    0.540541    0.057192        C
    0.693694    0.630631    0.057192        C
    0.783784    0.621622    0.057192        C
    0.882883    0.711712    0.057192        C
    0.621622    0.837838    0.057192        C
    0.720721    0.927928    0.057192        C
    0.810811    0.918919    0.057192        C
    0.909910    0.009009    0.057192        C
    0.000000    0.000000    0.057192        C
    0.099099    0.090090    0.057192        C
    0.189189    0.081081    0.057192        C
    0.288288    0.171171    0.057192        C
    0.378378    0.162162    0.057192        C
    0.477477    0.252252    0.057192        C
    0.567568    0.243243    0.057192        C
    0.666667    0.333333    0.057192        C
    0.756757    0.324324    0.057192        C
    0.855856    0.414414    0.057192        C
    0.945946    0.405405    0.057192        C
    0.045045    0.495495    0.057192        C
    0.135135    0.486486    0.057192        C
    0.234234    0.576577    0.057192        C
    0.324324    0.567568    0.057192        C
    0.423423    0.657658    0.057192        C
    0.729730    0.027027    0.057192        C
    0.828829    0.117117    0.057192        C
    0.918919    0.108108    0.057192        C
    0.018018    0.198198    0.057192        C
    0.108108    0.189189    0.057192        C
    0.207207    0.279279    0.057192        C
    0.297297    0.270270    0.057192        C
    0.396396    0.360360    0.057192        C
    0.486486    0.351351    0.057192        C
    0.585586    0.441441    0.057192        C
    0.675676    0.432432    0.057192        C
    0.774775    0.522523    0.057192        C
    0.864865    0.513514    0.057192        C
    0.963964    0.603604    0.057192        C
    0.054054    0.594595    0.057192        C
    0.153153    0.684685    0.057192        C
    0.243243    0.675676    0.057192        C
    0.342342    0.765766    0.057192        C
    0.432432    0.756757    0.057192        C
    0.531532    0.846847    0.057192        C
    0.972973    0.702703    0.057192        C
    0.072072    0.792793    0.057192        C
    0.162162    0.783784    0.057192        C
    0.261261    0.873874    0.057192        C
    0.351351    0.864865    0.057192        C
    0.450450    0.954955    0.057192        C
    0.540541    0.945946    0.057192        C
    0.639640    0.036036    0.057192        C
    0.648649    0.513514    0.142808        C
    0.738739    0.612613    0.142808        C
    0.837838    0.621622    0.142808        C
    0.927928    0.720721    0.142808        C
    0.027027    0.729730    0.142808        C
    0.117117    0.828829    0.142808        C
    0.216216    0.837838    0.142808        C
    0.306306    0.936937    0.142808        C
    0.405405    0.945946    0.142808        C
    0.495495    0.045045    0.142808        C
    0.594595    0.054054    0.142808        C
    0.684685    0.153153    0.142808        C
    0.783784    0.162162    0.142808        C
    0.873874    0.261261    0.142808        C
    0.972973    0.270270    0.142808        C
    0.063063    0.369369    0.142808        C
    0.162162    0.378378    0.142808        C
    0.252252    0.477477    0.142808        C
    0.351351    0.486486    0.142808        C
    0.441441    0.585586    0.142808        C
    0.540541    0.594595    0.142808        C
    0.630631    0.693694    0.142808        C
    0.729730    0.702703    0.142808        C
    0.819820    0.801802    0.142808        C
    0.918919    0.810811    0.142808        C
    0.009009    0.909910    0.142808        C
    0.108108    0.918919    0.142808        C
    0.198198    0.018018    0.142808        C
    0.297297    0.027027    0.142808        C
    0.387387    0.126126    0.142808        C
    0.486486    0.135135    0.142808        C
    0.576577    0.234234    0.142808        C
    0.675676    0.243243    0.142808        C
    0.765766    0.342342    0.142808        C
    0.864865    0.351351    0.142808        C
    0.954955    0.450450    0.142808        C
    0.054054    0.459459    0.142808        C
    0.144144    0.558559    0.142808        C
    0.243243    0.567568    0.142808        C
    0.333333    0.666667    0.142808        C
    0.432432    0.675676    0.142808        C
    0.522523    0.774775    0.142808        C
    0.621622    0.783784    0.142808        C
    0.711712    0.882883    0.142808        C
    0.810811    0.891892    0.142808        C
    0.900901    0.990991    0.142808        C
    0.000000    0.000000    0.142808        C
    0.090090    0.099099    0.142808        C
    0.189189    0.108108    0.142808        C
    0.279279    0.207207    0.142808        C
    0.378378    0.216216    0.142808        C
    0.468468    0.315315    0.142808        C
    0.567568    0.324324    0.142808        C
    0.657658    0.423423    0.142808        C
    0.756757    0.432432    0.142808        C
    0.846847    0.531532    0.142808        C
    0.945946    0.540541    0.142808        C
    0.036036    0.639640    0.142808        C
    0.135135    0.648649    0.142808        C
    0.225225    0.747748    0.142808        C
    0.324324    0.756757    0.142808        C
    0.414414    0.855856    0.142808        C
    0.513514    0.864865    0.142808        C
    0.603604    0.963964    0.142808        C
    0.702703    0.972973    0.142808        C
    0.792793    0.072072    0.142808        C
    0.891892    0.081081    0.142808        C
    0.981982    0.180180    0.142808        C
    0.081081    0.189189    0.142808        C
    0.171171    0.288288    0.142808        C
    0.270270    0.297297    0.142808        C
    0.360360    0.396396    0.142808        C
    0.459459    0.405405    0.142808        C
    0.549550    0.504505    0.142808        C
    0.513514    0.648649    0.157192        C
    0.612613    0.738739    0.157192        C
    0.702703    0.729730    0.157192        C
    0.801802    0.819820    0.157192        C
    0.891892    0.810811    0.157192        C
    0.990991    0.900901    0.157192        C
    0.081081    0.891892    0.157192        C
    0.180180    0.981982    0.157192        C
    0.270270    0.972973    0.157192        C
    0.369369    0.063063    0.157192        C
    0.459459    0.054054    0.157192        C
    0.558559    0.144144    0.157192        C
    0.648649    0.135135    0.157192        C
    0.747748    0.225225    0.157192        C
    0.837838    0.216216    0.157192        C
    0.936937    0.306306    0.157192        C
    0.027027    0.297297    0.157192        C
    0.126126    0.387387    0.157192        C
    0.216216    0.378378    0.157192        C
    0.315315    0.468468    0.157192        C
    0.405405    0.459459    0.157192        C
    0.504505    0.549550    0.157192        C
    0.594595    0.540541    0.157192        C
    0.693694    0.630631    0.157192        C
    0.783784    0.621622    0.157192        C
    0.882883    0.711712    0.157192        C
    0.621622    0.837838    0.157192        C
    0.720721    0.927928    0.157192        C
    0.810811    0.918919    0.157192        C
    0.909910    0.009009    0.157192        C
    0.000000    0.000000    0.157192        C
    0.099099    0.090090    0.157192        C
    0.189189    0.081081    0.157192        C
    0.288288    0.171171    0.157192        C
    0.378378    0.162162    0.157192        C
    0.477477    0.252252    0.157192        C
    0.567568    0.243243    0.157192        C
    0.666667    0.333333    0.157192        C
    0.756757    0.324324    0.157192        C
    0.855856    0.414414    0.157192        C
    0.945946    0.405405    0.157192        C
    0.045045    0.495495    0.157192        C
    0.135135    0.486486    0.157192        C
    0.234234    0.576577    0.157192        C
    0.324324    0.567568    0.157192        C
    0.423423    0.657658    0.157192        C
    0.729730    0.027027    0.157192        C
    0.828829    0.117117    0.157192        C
    0.918919    0.108108    0.157192        C
    0.018018    0.198198    0.157192        C
    0.108108    0.189189    0.157192        C
    0.207207    0.279279    0.157192        C
    0.297297    0.270270    0.157192        C
    0.396396    0.360360    0.157192        C
    0.486486    0.351351    0.157192        C
    0.585586    0.441441    0.157192        C
    0.675676    0.432432    0.157192        C
    0.774775    0.522523    0.157192        C
    0.864865    0.513514    0.157192        C
    0.963964    0.603604    0.157192        C
    0.054054    0.594595    0.157192        C
    0.153153    0.684685    0.157192        C
    0.243243    0.675676    0.157192        C
    0.342342    0.765766    0.157192        C
    0.432432    0.756757    0.157192        C
    0.531532    0.846847    0.157192        C
    0.972973    0.702703    0.157192        C
    0.072072    0.792793    0.157192        C
    0.162162    0.783784    0.157192        C
    0.261261    0.873874    0.157192        C
    0.351351    0.864865    0.157192        C
    0.450450    0.954955    0.157192        C
    0.540541    0.945946    0.157192        C
    0.639640    0.036036    0.157192        C
    0.648649    0.513514    0.242808        C
    0.738739    0.612613    0.242808        C
    0.837838    0.621622    0.242808        C
    0.927928    0.720721    0.242808        C
    0.027027    0.729730    0.242808        C
    0.117117    0.828829    0.242808        C
    0.216216    0.837838    0.242808        C
    0.306306    0.936937    0.242808        C
    0.405405    0.945946    0.242808        C
    0.495495    0.045045    0.242808        C
    0.594595    0.054054    0.242808        C
    0.684685    0.153153    0.242808        C
    0.783784    0.162162    0.242808        C
    0.873874    0.261261    0.242808        C
    0.972973    0.270270    0.242808        C
    0.063063    0.369369    0.242808        C
    0.162162    0.378378    0.242808        C
    0.252252    0.477477    0.242808        C
    0.351351    0.486486    0.242808        C
    0.441441    0.585586    0.242808        C
    0.540541    0.594595    0.242808        C
    0.630631    0.693694    0.242808        C
    0.729730    0.702703    0.242808        C
    0.819820    0.801802    0.242808        C
    0.918919    0.810811    0.242808        C
    0.009009    0.909910    0.242808        C
    0.108108    0.918919    0.242808        C
    0.198198    0.018018    0.242808        C
    0.297297    0.027027    0.242808        C
    0.387387    0.126126    0.242808        C
    0.486486    0.135135    0.242808        C
    0.576577    0.234234    0.242808        C
    0.675676    0.243243    0.242808        C
    0.765766    0.342342    0.242808        C
    0.864865    0.351351    0.242808        C
    0.954955    0.450450    0.242808        C
    0.054054    0.459459    0.242808        C
    0.144144    0.558559    0.242808        C
    0.243243    0.567568    0.242808        C
    0.333333    0.666667    0.242808        C
    0.432432    0.675676    0.242808        C
    0.522523    0.774775    0.242808        C
    0.621622    0.783784    0.242808        C
    0.711712    0.882883    0.242808        C
    0.810811    0.891892    0.242808        C
    0.900901    0.990991    0.242808        C
    0.000000    0.000000    0.242808        C
    0.090090    0.099099    0.242808        C
    0.189189    0.108108    0.242808        C
    0.279279    0.207207    0.242808        C
    0.378378    0.216216    0.242808        C
    0.468468    0.315315    0.242808        C
    0.567568    0.324324    0.242808        C
    0.657658    0.423423    0.242808        C
    0.756757    0.432432    0.242808        C
    0.846847    0.531532    0.242808        C
    0.945946    0.540541    0.242808        C
    0.036036    0.639640    0.242808        C
    0.135135    0.648649    0.242808        C
    0.225225    0.747748    0.242808        C
    0.324324    0.756757    0.242808        C
    0.414414    0.855856    0.242808        C
    0.513514    0.864865    0.242808        C
    0.603604    0.963964    0.242808        C
    0.702703    0.972973    0.242808        C
    0.792793    0.072072    0.242808        C
    0.891892    0.081081    0.242808        C
    0.981982    0.180180    0.242808        C
    0.081081    0.189189    0.242808        C
    0.171171    0.288288    0.242808        C
    0.270270    0.297297    0.242808        C
    0.360360    0.396396    0.242808        C
    0.459459    0.405405    0.242808        C
    0.549550    0.504505    0.242808        C
    0.513514    0.648649    0.257192        C
    0.612613    0.738739    0.257192        C
    0.702703    0.729730    0.257192        C
    0.801802    0.819820    0.257192        C
    0.891892    0.810811    0.257192        C
    0.990991    0.900901    0.257192        C
    0.081081    0.891892    0.257192        C
    0.180180    0.981982    0.257192        C
    0.270270    0.972973    0.257192        C
    0.369369    0.063063    0.257192        C
    0.459459    0.054054    0.257192        C
    0.558559    0.144144    0.257192        C
    0.648649    0.135135    0.257192        C
    0.747748    0.225225    0.257192        C
    0.837838    0.216216    0.257192        C
    0.936937    0.306306    0.257192        C
    0.027027    0.297297    0.257192        C
    0.126126    0.387387    0.257192        C
    0.216216    0.378378    0.257192        C
    0.315315    0.468468    0.257192        C
    0.405405    0.459459    0.257192        C
    0.504505    0.549550    0.257192        C
    0.594595    0.540541    0.257192        C
    0.693694    0.630631    0.257192        C
    0.783784    0.621622    0.257192        C
    0.882883    0.711712    0.257192        C
    0.621622    0.837838    0.257192        C
    0.720721    0.927928    0.257192        C
    0.810811    0.918919    0.257192        C
    0.909910    0.009009    0.257192        C
    0.000000    0.000000    0.257192        C
    0.099099    0.090090    0.257192        C
    0.189189    0.081081    0.257192        C
    0.288288    0.171171    0.257192        C
    0.378378    0.162162    0.257192        C
    0.477477    0.252252    0.257192        C
    0.567568    0.243243    0.257192        C
    0.666667    0.333333    0.257192        C
    0.756757    0.324324    0.257192        C
    0.855856    0.414414    0.257192        C
    0.945946    0.405405    0.257192        C
    0.045045    0.495495    0.257192        C
    0.135135    0.486486    0.257192        C
    0.234234    0.576577    0.257192        C
    0.324324    0.567568    0.257192        C
    0.423423    0.657658    0.257192        C
    0.729730    0.027027    0.257192        C
    0.828829    0.117117    0.257192        C
    0.918919    0.108108    0.257192        C
    0.018018    0.198198    0.257192        C
    0.108108    0.189189    0.257192        C
    0.207207    0.279279    0.257192        C
    0.297297    0.270270    0.257192        C
    0.396396    0.360360    0.257192        C
    0.486486    0.351351    0.257192        C
    0.585586    0.441441    0.257192        C
    0.675676    0.432432    0.257192        C
    0.774775    0.522523    0.257192        C
    0.864865    0.513514    0.257192        C
    0.963964    0.603604    0.257192        C
    0.054054    0.594595    0.257192        C
    0.153153    0.684685    0.257192        C
    0.243243    0.675676    0.257192        C
    0.342342    0.765766    0.257192        C
    0.432432    0.756757    0.257192        C
    0.531532    0.846847    0.257192        C
    0.972973    0.702703    0.257192        C
    0.072072    0.792793    0.257192        C
    0.162162    0.783784    0.257192        C
    0.261261    0.873874    0.257192        C
    0.351351    0.864865    0.257192        C
    0.450450    0.954955    0.257192        C
    0.540541    0.945946    0.257192        C
    0.639640    0.036036    0.257192        C
    0.648649    0.513514    0.342808        C
    0.738739    0.612613    0.342808        C
    0.837838    0.621622    0.342808        C
    0.927928    0.720721    0.342808        C
    0.027027    0.729730    0.342808        C
    0.117117    0.828829    0.342808        C
    0.216216    0.837838    0.342808        C
    0.306306    0.936937    0.342808        C
    0.405405    0.945946    0.342808        C
    0.495495    0.045045    0.342808        C
    0.594595    0.054054    0.342808        C
    0.684685    0.153153    0.342808        C
    0.783784    0.162162    0.342808        C
    0.873874    0.261261    0.342808        C
    0.972973    0.270270    0.342808        C
    0.063063    0.369369    0.342808        C
    0.162162    0.378378    0.342808        C
    0.252252    0.477477    0.342808        C
    0.351351    0.486486    0.342808        C
    0.441441    0.585586    0.342808        C
    0.540541    0.594595    0.342808        C
    0.630631    0.693694    0.342808        C
    0.729730    0.702703    0.342808        C
    0.819820    0.801802    0.342808        C
    0.918919    0.810811    0.342808        C
    0.009009    0.909910    0.342808        C
    0.108108    0.918919    0.342808        C
    0.198198    0.018018    0.342808        C
    0.297297    0.027027    0.342808        C
    0.387387    0.126126    0.342808        C
    0.486486    0.135135    0.342808        C
    0.576577    0.234234    0.342808        C
    0.675676    0.243243    0.342808        C
    0.765766    0.342342    0.342808        C
    0.864865    0.351351    0.342808        C
    0.954955    0.450450    0.342808        C
    0.054054    0.459459    0.342808        C
    0.144144    0.558559    0.342808        C
    0.243243    0.567568    0.342808        C
    0.333333    0.666667    0.342808        C
    0.432432    0.675676    0.342808        C
    0.522523    0.774775    0.342808        C
    0.621622    0.783784    0.342808        C
    0.711712    0.882883    0.342808        C
    0.810811    0.891892    0.342808        C
    0.900901    0.990991    0.342808        C
    0.000000    0.000000    0.342808        C
    0.090090    0.099099    0.342808        C
    0.189189    0.108108    0.342808        C
    0.279279    0.207207    0.342808        C
    0.378378    0.216216    0.342808        C
    0.468468    0.315315    0.342808        C
    0.567568    0.324324    0.342808        C
    0.657658    0.423423    0.342808        C
    0.756757    0.432432    0.342808        C
    0.846847    0.531532    0.342808        C
    0.945946    0.540541    0.342808        C
    0.036036    0.639640    0.342808        C
    0.135135    0.648649    0.342808        C
    0.225225    0.747748    0.342808        C
    0.324324    0.756757    0.342808        C
    0.414414    0.855856    0.342808        C
    0.513514    0.864865    0.342808        C
    0.603604    0.963964    0.342808        C
    0.702703    0.972973    0.342808        C
    0.792793    0.072072    0.342808        C
    0.891892    0.081081    0.342808        C
    0.981982    0.180180    0.342808        C
    0.081081    0.189189    0.342808        C
    0.171171    0.288288    0.342808        C
    0.270270    0.297297    0.342808        C
    0.360360    0.396396    0.342808        C
    0.459459    0.405405    0.342808        C
    0.549550    0.504505    0.342808        C
    0.513514    0.648649    0.357192        C
    0.612613    0.738739    0.357192        C
    0.702703    0.729730    0.357192        C
    0.801802    0.819820    0.357192        C
    0.891892    0.810811    0.357192        C
    0.990991    0.900901    0.357192        C
    0.081081    0.891892    0.357192        C
    0.180180    0.981982    0.357192        C
    0.270270    0.972973    0.357192        C
    0.369369    0.063063    0.357192        C
    0.459459    0.054054    0.357192        C
    0.558559    0.144144    0.357192        C
    0.648649    0.135135    0.357192        C
    0.747748    0.225225    0.357192        C
    0.837838    0.216216    0.357192        C
    0.936937    0.306306    0.357192        C
    0.027027    0.297297    0.357192        C
    0.126126    0.387387    0.357192        C
    0.216216    0.378378    0.357192        C
    0.315315    0.468468    0.357192        C
    0.405405    0.459459    0.357192        C
    0.504505    0.549550    0.357192        C
    0.594595    0.540541    0.357192        C
    0.693694    0.630631    0.357192        C
    0.783784    0.621622    0.357192        C
    0.882883    0.711712    0.357192        C
    0.621622    0.837838    0.357192        C
    0.720721    0.927928    0.357192        C
    0.810811    0.918919    0.357192        C
    0.909910    0.009009    0.357192        C
    0.000000    0.000000    0.357192        C
    0.099099    0.090090    0.357192        C
    0.189189    0.081081    0.357192        C
    0.288288    0.171171    0.357192        C
    0.378378    0.162162    0.357192        C
    0.477477    0.252252    0.357192        C
    0.567568    0.243243    0.357192        C
    0.666667    0.333333    0.357192        C
    0.756757    0.324324    0.357192        C
    0.855856    0.414414    0.357192        C
    0.945946    0.405405    0.357192        C
    0.045045    0.495495    0.357192        C
    0.135135    0.486486    0.357192        C
    0.234234    0.576577    0.357192        C
    0.324324    0.567568    0.357192        C
    0.423423    0.657658    0.357192        C
    0.729730    0.027027    0.357192        C
    0.828829    0.117117    0.357192        C
    0.918919    0.108108    0.357192        C
    0.018018    0.198198    0.357192        C
    0.108108    0.189189    0.357192        C
    0.207207    0.279279    0.357192        C
    0.297297    0.270270    0.357192        C
    0.396396    0.360360    0.357192        C
    0.486486    0.351351    0.357192        C
    0.585586    0.441441    0.357192        C
    0.675676    0.432432    0.357192        C
    0.774775    0.522523    0.357192        C
    0.864865    0.513514    0.357192        C
    0.963964    0.603604    0.357192        C
    0.054054    0.594595    0.357192        C
    0.153153    0.684685    0.357192        C
    0.243243    0.675676    0.357192        C
    0.342342    0.765766    0.357192        C
    0.432432    0.756757    0.357192        C
    0.531532    0.846847    0.357192        C
    0.972973    0.702703    0.357192        C
    0.072072    0.792793    0.357192        C
    0.162162    0.783784    0.357192        C
    0.261261    0.873874    0.357192        C
    0.351351    0.864865    0.357192        C
    0.450450    0.954955    0.357192        C
    0.540541    0.945946    0.357192        C
    0.639640    0.036036    0.357192        C
    0.648649    0.513514    0.442808        C
    0.738739    0.612613    0.442808        C
    0.837838    0.621622    0.442808        C
    0.927928    0.720721    0.442808        C
    0.027027    0.729730    0.442808        C
    0.117117    0.828829    0.442808        C
    0.216216    0.837838    0.442808        C
    0.306306    0.936937    0.442808        C
    0.405405    0.945946    0.442808        C
    0.495495    0.045045    0.442808        C
    0.594595    0.054054    0.442808        C
    0.684685    0.153153    0.442808        C
    0.783784    0.162162    0.442808        C
    0.873874    0.261261    0.442808        C
    0.972973    0.270270    0.442808        C
    0.063063    0.369369    0.442808        C
    0.162162    0.378378    0.442808        C
    0.252252    0.477477    0.442808        C
    0.351351    0.486486    0.442808        C
    0.441441    0.585586    0.442808        C
    0.540541    0.594595    0.442808        C
    0.630631    0.693694    0.442808        C
    0.729730    0.702703    0.442808        C
    0.819820    0.801802    0.442808        C
    0.918919    0.810811    0.442808        C
    0.009009    0.909910    0.442808        C
    0.108108    0.918919    0.442808        C
    0.198198    0.018018    0.442808        C
    0.297297    0.027027    0.442808        C
    0.387387    0.126126    0.442808        C
    0.486486    0.135135    0.442808        C
    0.576577    0.234234    0.442808        C
    0.675676    0.243243    0.442808        C
    0.765766    0.342342    0.442808        C
    0.864865    0.351351    0.442808        C
    0.954955    0.450450    0.442808        C
    0.054054    0.459459    0.442808        C
    0.144144    0.558559    0.442808        C
    0.243243    0.567568    0.442808        C
    0.333333    0.666667    0.442808        C
    0.432432    0.675676    0.442808        C
    0.522523    0.774775    0.442808        C
    0.621622    0.783784    0.442808        C
    0.711712    0.882883    0.442808        C
    0.810811    0.891892    0.442808        C
    0.900901    0.990991    0.442808        C
    0.000000    0.000000    0.442808        C
    0.090090    0.099099    0.442808        C
    0.189189    0.108108    0.442808        C
    0.279279    0.207207    0.442808        C
    0.378378    0.216216    0.442808        C
    0.468468    0.315315    0.442808        C
    0.567568    0.324324    0.442808        C
    0.657658    0.423423    0.442808        C
    0.756757    0.432432    0.442808        C
    0.846847    0.531532    0.442808        C