! Twisted  3 layerstheta=  21.786789 degree.
1.0
    6.508548   -0.000000    0.000000
   -3.254274    5.636568    0.000000
    0.000000    0.000000   26.720000
     C
    42
Cartesian
   -0.464896    2.415672   10.000000        C
   -0.000000    3.757712   10.000000        C
    1.394689    4.026120   10.000000        C
    1.859585    5.368160   10.000000        C
   -0.000000   -0.000000   10.000000        C
    0.464896    1.342040   10.000000        C
    1.859585    1.610448   10.000000        C
    2.324482    2.952488   10.000000        C
    3.719170    3.220896   10.000000        C
   -2.324482    4.562936   10.000000        C
   -0.929793    4.831344   10.000000        C
    2.789378    0.536816   10.000000        C
    4.184067    0.805224   10.000000        C
    4.648963    2.147264   10.000000        C
    2.324482    0.805224   13.360000        C
    3.254274    1.878856   13.360000        C
    4.648963    1.610448   13.360000        C
   -0.929793    2.684080   13.360000        C
    0.464896    2.415672   13.360000        C
    1.394689    3.489304   13.360000        C
    2.789378    3.220896   13.360000        C
    3.719170    4.294528   13.360000        C
   -1.394689    4.026120   13.360000        C
   -0.464896    5.099752   13.360000        C
    0.929793    4.831344   13.360000        C
    5.113859    0.268408   13.360000        C
    0.000000   -0.000000   13.360000        C
    0.929793    1.073632   13.360000        C
   -1.859585    5.368160   16.720000        C
    2.324482    0.805224   16.720000        C
    3.719170    0.536816   16.720000        C
    4.648963    1.610448   16.720000        C
   -0.464896    1.342040   16.720000        C
    0.464896    2.415672   16.720000        C
    1.859585    2.147264   16.720000        C
    2.789378    3.220896   16.720000        C
    4.184067    2.952488   16.720000        C
   -1.394689    4.026120   16.720000        C
    0.000000    3.757712   16.720000        C
    0.929793    4.831344   16.720000        C
    2.324482    4.562936   16.720000        C
    0.000000   -0.000000   16.720000        C
