POSCAR for generated by WannierTools
1.0
    0.000000   -2.460000    0.000000
    2.130422    1.230000    0.000000
    0.000000    0.000000  334.400000
C     
   100
Direct
    0.000000    0.000000    0.029904        C
    0.333333    0.666667    0.029904        C
    0.666667    0.333333    0.039952        C
    0.000000    0.000000    0.039952        C
    0.333333    0.666667    0.050000        C
    0.666667    0.333333    0.050000        C
    0.000000    0.000000    0.060048        C
    0.333333    0.666667    0.060048        C
    0.666667    0.333333    0.070096        C
    0.000000    0.000000    0.070096        C
    0.000000    0.000000    0.129904        C
    0.333333    0.666667    0.129904        C
    0.666667    0.333333    0.139952        C
    0.000000    0.000000    0.139952        C
    0.333333    0.666667    0.150000        C
    0.666667    0.333333    0.150000        C
    0.000000    0.000000    0.160048        C
    0.333333    0.666667    0.160048        C
    0.666667    0.333333    0.170096        C
    0.000000    0.000000    0.170096        C
    0.000000    0.000000    0.229904        C
    0.333333    0.666667    0.229904        C
    0.666667    0.333333    0.239952        C
    0.000000    0.000000    0.239952        C
    0.333333    0.666667    0.250000        C
    0.666667    0.333333    0.250000        C
    0.000000    0.000000    0.260048        C
    0.333333    0.666667    0.260048        C
    0.666667    0.333333    0.270096        C
    0.000000    0.000000    0.270096        C
    0.000000    0.000000    0.329904        C
    0.333333    0.666667    0.329904        C
    0.666667    0.333333    0.339952        C
    0.000000    0.000000    0.339952        C
    0.333333    0.666667    0.350000        C
    0.666667    0.333333    0.350000        C
    0.000000    0.000000    0.360048        C
    0.333333    0.666667    0.360048        C
    0.666667    0.333333    0.370096        C
    0.000000    0.000000    0.370096        C
    0.000000    0.000000    0.429904        C
    0.333333    0.666667    0.429904        C
    0.666667    0.333333    0.439952        C
    0.000000    0.000000    0.439952        C
    0.333333    0.666667    0.450000        C
    0.666667    0.333333    0.450000        C
    0.000000    0.000000    0.460048        C
    0.333333    0.666667    0.460048        C
    0.666667    0.333333    0.470096        C
    0.000000    0.000000    0.470096        C
    0.000000    0.000000    0.529904        C
    0.333333    0.666667    0.529904        C
    0.666667    0.333333    0.539952        C
    0.000000    0.000000    0.539952        C
    0.333333    0.666667    0.550000        C
    0.666667    0.333333    0.550000        C
    0.000000    0.000000    0.560048        C
    0.333333    0.666667    0.560048        C
    0.666667    0.333333    0.570096        C
    0.000000    0.000000    0.570096        C
    0.000000    0.000000    0.629904        C
    0.333333    0.666667    0.629904        C
    0.666667    0.333333    0.639952        C
    0.000000    0.000000    0.639952        C
    0.333333    0.666667    0.650000        C
    0.666667    0.333333    0.650000        C
    0.000000    0.000000    0.660048        C
    0.333333    0.666667    0.660048        C
    0.666667    0.333333    0.670096        C
    0.000000    0.000000    0.670096        C
    0.000000    0.000000    0.729904        C
    0.333333    0.666667    0.729904        C
    0.666667    0.333333    0.739952        C
    0.000000    0.000000    0.739952        C
    0.333333    0.666667    0.750000        C
    0.666667    0.333333    0.750000        C
    0.000000    0.000000    0.760048        C
    0.333333    0.666667    0.760048        C
    0.666667    0.333333    0.770096        C
    0.000000    0.000000    0.770096        C
    0.000000    0.000000    0.829904        C
    0.333333    0.666667    0.829904        C
    0.666667    0.333333    0.839952        C
    0.000000    0.000000    0.839952        C
    0.333333    0.666667    0.850000        C
    0.666667    0.333333    0.850000        C
    0.000000    0.000000    0.860048        C
    0.333333    0.666667    0.860048        C
    0.666667    0.333333    0.870096        C
    0.000000    0.000000    0.870096        C
    0.000000    0.000000    0.929904        C
    0.333333    0.666667    0.929904        C
    0.666667    0.333333    0.939952        C
    0.000000    0.000000    0.939952        C
    0.333333    0.666667    0.950000        C
    0.666667    0.333333    0.950000        C
    0.000000    0.000000    0.960048        C
    0.333333    0.666667    0.960048        C
    0.666667    0.333333    0.970096        C
    0.000000    0.000000    0.970096        C
