POSCAR for slab defined by SURFACE card and Nslab and Vacuum_thickness_in_Angstrom in wt.in by WannierTools
1.0
    0.000000   -2.456048    0.000000
    2.127000    1.228024    0.000000
    0.000000    0.000000  244.183544
C     
    40
Cartesian
    0.000000    0.000000   24.123763        C
    0.000000    0.000000   47.483763        C
    0.000000    0.000000   70.843763        C
    0.000000    0.000000   94.203763        C
    0.000000    0.000000  117.563763        C
    0.000000    0.000000  140.923763        C
    0.000000    0.000000  164.283763        C
    0.000000    0.000000  187.643763        C
    0.000000    0.000000  211.003763        C
    0.000000    0.000000  234.363763        C
    1.418001    0.000001   24.123763        C
    1.418001    0.000001   47.483763        C
    1.418001    0.000001   70.843763        C
    1.418001    0.000001   94.203763        C
    1.418001    0.000001  117.563763        C
    1.418001    0.000001  140.923763        C
    1.418001    0.000001  164.283763        C
    1.418001    0.000001  187.643763        C
    1.418001    0.000001  211.003763        C
    1.418001    0.000001  234.363763        C
    0.000000    0.000000   27.483772        C
    0.000000    0.000000   50.843772        C
    0.000000    0.000000   74.203772        C
    0.000000    0.000000   97.563772        C
    0.000000    0.000000  120.923772        C
    0.000000    0.000000  144.283772        C
    0.000000    0.000000  167.643772        C
    0.000000    0.000000  191.003772        C
    0.000000    0.000000  214.363772        C
    0.000000    0.000000  237.723772        C
    0.708999   -1.228025   27.483772        C
    0.708999   -1.228025   50.843772        C
    0.708999   -1.228025   74.203772        C
    0.708999   -1.228025   97.563772        C
    0.708999   -1.228025  120.923772        C
    0.708999   -1.228025  144.283772        C
    0.708999   -1.228025  167.643772        C
    0.708999   -1.228025  191.003772        C
    0.708999   -1.228025  214.363772        C
    0.708999   -1.228025  237.723772        C
