POSCAR for generated by WannierTools
1.0
    0.000000   -2.456048    0.000000
    2.127000    1.228024    0.000000
    0.000000    0.000000   23.360000
C     
     4
Direct
    0.000000    0.000000    0.428082        C
    0.333333    0.666667    0.428082        C
    0.000000    0.000000    0.571918        C
    0.666667    0.333333    0.571918        C
