! Twisted  5 layerstheta=  59.999998 degree.
1.0
    2.460000    0.000000    0.000000
   -1.230000    2.130422    0.000000
    0.000000    0.000000   33.440000
     C
    10
Cartesian
   -0.000000   -0.000000   10.000000        C
    0.000000    1.420282   10.000000        C
    1.230000    0.710141   13.360000        C
   -0.000000   -0.000000   13.360000        C
    0.000000    1.420282   16.720000        C
    1.230000    0.710141   16.720000        C
   -0.000000   -0.000000   20.080000        C
    0.000000    1.420282   20.080000        C
    1.230000    0.710141   23.440000        C
   -0.000000   -0.000000   23.440000        C
