! Twisted  2 layerstheta=  59.999998 degree.
1.0
    2.456048    0.000000    0.000000
   -1.228024    2.127000    0.000000
    0.000000    0.000000   23.360000
     C
     4
Cartesian
   -0.000000   -0.000000   10.000000        C
    0.000000    1.418000   10.000000        C
   -0.000000    0.000000   13.360000        C
    1.228024    0.709000   13.360000        C
