POSCAR for twisted bilayer graphene
1.0
    6.381000  -13.508264    0.000000
    8.508000   12.280240    0.000000
    0.000000    0.000000   23.360000
     C
   148
Direct
    0.648649    0.513514    0.428082
    0.738739    0.612613    0.428082
    0.837838    0.621622    0.428082
    0.927928    0.720721    0.428082
    0.027027    0.729730    0.428082
    0.117117    0.828829    0.428082
    0.216216    0.837838    0.428082
    0.306306    0.936937    0.428082
    0.405405    0.945946    0.428082
    0.495495    0.045045    0.428082
    0.594595    0.054054    0.428082
    0.684685    0.153153    0.428082
    0.783784    0.162162    0.428082
    0.873874    0.261261    0.428082
    0.972973    0.270270    0.428082
    0.063063    0.369369    0.428082
    0.162162    0.378378    0.428082
    0.252252    0.477477    0.428082
    0.351351    0.486486    0.428082
    0.441441    0.585586    0.428082
    0.540541    0.594595    0.428082
    0.630631    0.693694    0.428082
    0.729730    0.702703    0.428082
    0.819820    0.801802    0.428082
    0.918919    0.810811    0.428082
    0.009009    0.909910    0.428082
    0.108108    0.918919    0.428082
    0.198198    0.018018    0.428082
    0.297297    0.027027    0.428082
    0.387387    0.126126    0.428082
    0.486486    0.135135    0.428082
    0.576577    0.234234    0.428082
    0.675676    0.243243    0.428082
    0.765766    0.342342    0.428082
    0.864865    0.351351    0.428082
    0.954955    0.450450    0.428082
    0.054054    0.459459    0.428082
    0.144144    0.558559    0.428082
    0.243243    0.567568    0.428082
    0.333333    0.666667    0.428082
    0.432432    0.675676    0.428082
    0.522523    0.774775    0.428082
    0.621622    0.783784    0.428082
    0.711712    0.882883    0.428082
    0.810811    0.891892    0.428082
    0.900901    0.990991    0.428082
   -0.000000   -0.000000    0.428082
    0.090090    0.099099    0.428082
    0.189189    0.108108    0.428082
    0.279279    0.207207    0.428082
    0.378378    0.216216    0.428082
    0.468468    0.315315    0.428082
    0.567568    0.324324    0.428082
    0.657658    0.423423    0.428082
    0.756757    0.432432    0.428082
    0.846847    0.531532    0.428082
    0.945946    0.540541    0.428082
    0.036036    0.639640    0.428082
    0.135135    0.648649    0.428082
    0.225225    0.747748    0.428082
    0.324324    0.756757    0.428082
    0.414414    0.855856    0.428082
    0.513514    0.864865    0.428082
    0.603604    0.963964    0.428082
    0.702703    0.972973    0.428082
    0.792793    0.072072    0.428082
    0.891892    0.081081    0.428082
    0.981982    0.180180    0.428082
    0.081081    0.189189    0.428082
    0.171171    0.288288    0.428082
    0.270270    0.297297    0.428082
    0.360360    0.396396    0.428082
    0.459459    0.405405    0.428082
    0.549550    0.504505    0.428082
    0.513514    0.648649    0.571918
    0.612613    0.738739    0.571918
    0.702703    0.729730    0.571918
    0.801802    0.819820    0.571918
    0.891892    0.810811    0.571918
    0.990991    0.900901    0.571918
    0.081081    0.891892    0.571918
    0.180180    0.981982    0.571918
    0.270270    0.972973    0.571918
    0.369369    0.063063    0.571918
    0.459459    0.054054    0.571918
    0.558559    0.144144    0.571918
    0.648649    0.135135    0.571918
    0.747748    0.225225    0.571918
    0.837838    0.216216    0.571918
    0.936937    0.306306    0.571918
    0.027027    0.297297    0.571918
    0.126126    0.387387    0.571918
    0.216216    0.378378    0.571918
    0.315315    0.468468    0.571918
    0.405405    0.459459    0.571918
    0.504505    0.549550    0.571918
    0.594595    0.540541    0.571918
    0.693694    0.630631    0.571918
    0.783784    0.621622    0.571918
    0.882883    0.711712    0.571918
    0.621622    0.837838    0.571918
    0.720721    0.927928    0.571918
    0.810811    0.918919    0.571918
    0.909910    0.009009    0.571918
   -0.000000   -0.000000    0.571918
    0.099099    0.090090    0.571918
    0.189189    0.081081    0.571918
    0.288288    0.171171    0.571918
    0.378378    0.162162    0.571918
    0.477477    0.252252    0.571918
    0.567568    0.243243    0.571918
    0.666667    0.333333    0.571918
    0.756757    0.324324    0.571918
    0.855856    0.414414    0.571918
    0.945946    0.405405    0.571918
    0.045045    0.495495    0.571918
    0.135135    0.486486    0.571918
    0.234234    0.576577    0.571918
    0.324324    0.567568    0.571918
    0.423423    0.657658    0.571918
    0.729730    0.027027    0.571918
    0.828829    0.117117    0.571918
    0.918919    0.108108    0.571918
    0.018018    0.198198    0.571918
    0.108108    0.189189    0.571918
    0.207207    0.279279    0.571918
    0.297297    0.270270    0.571918
    0.396396    0.360360    0.571918
    0.486486    0.351351    0.571918
    0.585586    0.441441    0.571918
    0.675676    0.432432    0.571918
    0.774775    0.522523    0.571918
    0.864865    0.513514    0.571918
    0.963964    0.603604    0.571918
    0.054054    0.594595    0.571918
    0.153153    0.684685    0.571918
    0.243243    0.675676    0.571918
    0.342342    0.765766    0.571918
    0.432432    0.756757    0.571918
    0.531532    0.846847    0.571918
    0.972973    0.702703    0.571918
    0.072072    0.792793    0.571918
    0.162162    0.783784    0.571918
    0.261261    0.873874    0.571918
    0.351351    0.864865    0.571918
    0.450450    0.954955    0.571918
    0.540541    0.945946    0.571918
    0.639640    0.036036    0.571918
