POSCAR for generated by WannierTools
1.0
    0.000000   -2.460000    0.000000
    2.130422    1.230000    0.000000
    0.000000    0.000000   33.440000
C     
    10
Direct
    0.000000    0.000000    0.548086        C
    0.333333    0.666667    0.548086        C
    0.666667    0.333333    0.648565        C
    0.000000    0.000000    0.648565        C
    0.333333    0.666667    0.749043        C
    0.666667    0.333333    0.749043        C
    0.000000    0.000000    0.849521        C
    0.333333    0.666667    0.849521        C
    0.666667    0.333333    0.950000        C
    0.000000    0.000000    0.950000        C
