POSCAR for generated by WannierTools
1.0
    2.130422   -6.150000    0.000000
    4.260845    4.920000    0.000000
    0.000000    0.000000   26.720000
C     
    42
Direct
    0.142857    0.428571    0.374251        C
    0.333333    0.666667    0.374251        C
    0.571429    0.714286    0.374251        C
    0.761905    0.952381    0.374251        C
    0.000000    0.000000    0.374251        C
    0.190476    0.238095    0.374251        C
    0.428571    0.285714    0.374251        C
    0.619048    0.523810    0.374251        C
    0.857143    0.571429    0.374251        C
    0.047619    0.809524    0.374251        C
    0.285714    0.857143    0.374251        C
    0.476190    0.095238    0.374251        C
    0.714286    0.142857    0.374251        C
    0.904762    0.380952    0.374251        C
    0.428571    0.142857    0.500000        C
    0.666667    0.333333    0.500000        C
    0.857143    0.285714    0.500000        C
    0.095238    0.476190    0.500000        C
    0.285714    0.428571    0.500000        C
    0.523810    0.619048    0.500000        C
    0.714286    0.571429    0.500000        C
    0.952381    0.761905    0.500000        C
    0.142857    0.714286    0.500000        C
    0.380952    0.904762    0.500000        C
    0.571429    0.857143    0.500000        C
    0.809524    0.047619    0.500000        C
    0.000000    0.000000    0.500000        C
    0.238095    0.190476    0.500000        C
    0.190476    0.952381    0.625749        C
    0.428571    0.142857    0.625749        C
    0.619048    0.095238    0.625749        C
    0.857143    0.285714    0.625749        C
    0.047619    0.238095    0.625749        C
    0.285714    0.428571    0.625749        C
    0.476190    0.380952    0.625749        C
    0.714286    0.571429    0.625749        C
    0.904762    0.523810    0.625749        C
    0.142857    0.714286    0.625749        C
    0.333333    0.666667    0.625749        C
    0.571429    0.857143    0.625749        C
    0.761905    0.809524    0.625749        C
    0.000000    0.000000    0.625749        C
