POSCAR for generated by WannierTools
1.0
    2.130422   -6.150000    0.000000
    4.260845    4.920000    0.000000
    0.000000    0.000000   26.720000
C     
    42
Direct
    0.142857    0.428571    0.698502        C
    0.333333    0.666667    0.698502        C
    0.571429    0.714286    0.698502        C
    0.761905    0.952381    0.698502        C
    0.000000    0.000000    0.698502        C
    0.190476    0.238095    0.698502        C
    0.428571    0.285714    0.698502        C
    0.619048    0.523810    0.698502        C
    0.857143    0.571429    0.698502        C
    0.047619    0.809524    0.698502        C
    0.285714    0.857143    0.698502        C
    0.476190    0.095238    0.698502        C
    0.714286    0.142857    0.698502        C
    0.904762    0.380952    0.698502        C
    0.428571    0.142857    0.824251        C
    0.666667    0.333333    0.824251        C
    0.857143    0.285714    0.824251        C
    0.095238    0.476190    0.824251        C
    0.285714    0.428571    0.824251        C
    0.523810    0.619048    0.824251        C
    0.714286    0.571429    0.824251        C
    0.952381    0.761905    0.824251        C
    0.142857    0.714286    0.824251        C
    0.380952    0.904762    0.824251        C
    0.571429    0.857143    0.824251        C
    0.809524    0.047619    0.824251        C
    0.000000    0.000000    0.824251        C
    0.238095    0.190476    0.824251        C
    0.190476    0.952381    0.950000        C
    0.428571    0.142857    0.950000        C
    0.619048    0.095238    0.950000        C
    0.857143    0.285714    0.950000        C
    0.047619    0.238095    0.950000        C
    0.285714    0.428571    0.950000        C
    0.476190    0.380952    0.950000        C
    0.714286    0.571429    0.950000        C
    0.904762    0.523810    0.950000        C
    0.142857    0.714286    0.950000        C
    0.333333    0.666667    0.950000        C
    0.571429    0.857143    0.950000        C
    0.761905    0.809524    0.950000        C
    0.000000    0.000000    0.950000        C
