POSCAR for slab defined by SURFACE card and Nslab and Vacuum_thickness_in_Angstrom in wt.in by WannierTools
1.0
    2.130422   -6.150000    0.000000
    4.260845    4.920000    0.000000
    0.000000    0.000000  277.783544
C     
   420
Cartesian
    2.130420    1.229999   23.955746        C
    2.130420    1.229999   50.675746        C
    2.130420    1.229999   77.395746        C
    2.130420    1.229999  104.115746        C
    2.130420    1.229999  130.835746        C
    2.130420    1.229999  157.555746        C
    2.130420    1.229999  184.275746        C
    2.130420    1.229999  210.995746        C
    2.130420    1.229999  237.715746        C
    2.130420    1.229999  264.435746        C
    3.550705    1.230004   23.955746        C
    3.550705    1.230004   50.675746        C
    3.550705    1.230004   77.395746        C
    3.550705    1.230004  104.115746        C
    3.550705    1.230004  130.835746        C
    3.550705    1.230004  157.555746        C
    3.550705    1.230004  184.275746        C
    3.550705    1.230004  210.995746        C
    3.550705    1.230004  237.715746        C
    3.550705    1.230004  264.435746        C
    4.260847   -0.000001   23.955746        C
    4.260847   -0.000001   50.675746        C
    4.260847   -0.000001   77.395746        C
    4.260847   -0.000001  104.115746        C
    4.260847   -0.000001  130.835746        C
    4.260847   -0.000001  157.555746        C
    4.260847   -0.000001  184.275746        C
    4.260847   -0.000001  210.995746        C
    4.260847   -0.000001  237.715746        C
    4.260847   -0.000001  264.435746        C
    5.681127   -0.000001   23.955746        C
    5.681127   -0.000001   50.675746        C
    5.681127   -0.000001   77.395746        C
    5.681127   -0.000001  104.115746        C
    5.681127   -0.000001  130.835746        C
    5.681127   -0.000001  157.555746        C
    5.681127   -0.000001  184.275746        C
    5.681127   -0.000001  210.995746        C
    5.681127   -0.000001  237.715746        C
    5.681127   -0.000001  264.435746        C
    0.000000    0.000000   23.955746        C
    0.000000    0.000000   50.675746        C
    0.000000    0.000000   77.395746        C
    0.000000    0.000000  104.115746        C
    0.000000    0.000000  130.835746        C
    0.000000    0.000000  157.555746        C
    0.000000    0.000000  184.275746        C
    0.000000    0.000000  210.995746        C
    0.000000    0.000000  237.715746        C
    0.000000    0.000000  264.435746        C
    1.420280    0.000000   23.955746        C
    1.420280    0.000000   50.675746        C
    1.420280    0.000000   77.395746        C
    1.420280    0.000000  104.115746        C
    1.420280    0.000000  130.835746        C
    1.420280    0.000000  157.555746        C
    1.420280    0.000000  184.275746        C
    1.420280    0.000000  210.995746        C
    1.420280    0.000000  237.715746        C
    1.420280    0.000000  264.435746        C
    2.130420   -1.229999   23.955746        C
    2.130420   -1.229999   50.675746        C
    2.130420   -1.229999   77.395746        C
    2.130420   -1.229999  104.115746        C
    2.130420   -1.229999  130.835746        C
    2.130420   -1.229999  157.555746        C
    2.130420   -1.229999  184.275746        C
    2.130420   -1.229999  210.995746        C
    2.130420   -1.229999  237.715746        C
    2.130420   -1.229999  264.435746        C
    3.550707   -1.230000   23.955746        C
    3.550707   -1.230000   50.675746        C
    3.550707   -1.230000   77.395746        C
    3.550707   -1.230000  104.115746        C
    3.550707   -1.230000  130.835746        C
    3.550707   -1.230000  157.555746        C
    3.550707   -1.230000  184.275746        C
    3.550707   -1.230000  210.995746        C
    3.550707   -1.230000  237.715746        C
    3.550707   -1.230000  264.435746        C
    4.260847   -2.459999   23.955746        C
    4.260847   -2.459999   50.675746        C
    4.260847   -2.459999   77.395746        C
    4.260847   -2.459999  104.115746        C
    4.260847   -2.459999  130.835746        C
    4.260847   -2.459999  157.555746        C
    4.260847   -2.459999  184.275746        C
    4.260847   -2.459999  210.995746        C
    4.260847   -2.459999  237.715746        C
    4.260847   -2.459999  264.435746        C
    3.550705    3.690001   23.955746        C
    3.550705    3.690001   50.675746        C
    3.550705    3.690001   77.395746        C
    3.550705    3.690001  104.115746        C
    3.550705    3.690001  130.835746        C
    3.550705    3.690001  157.555746        C
    3.550705    3.690001  184.275746        C
    3.550705    3.690001  210.995746        C
    3.550705    3.690001  237.715746        C
    3.550705    3.690001  264.435746        C
    4.260845    2.460002   23.955746        C
    4.260845    2.460002   50.675746        C
    4.260845    2.460002   77.395746        C
    4.260845    2.460002  104.115746        C
    4.260845    2.460002  130.835746        C
    4.260845    2.460002  157.555746        C
    4.260845    2.460002  184.275746        C
    4.260845    2.460002  210.995746        C
    4.260845    2.460002  237.715746        C
    4.260845    2.460002  264.435746        C
    1.420280   -2.459998   23.955746        C
    1.420280   -2.459998   50.675746        C
    1.420280   -2.459998   77.395746        C
    1.420280   -2.459998  104.115746        C
    1.420280   -2.459998  130.835746        C
    1.420280   -2.459998  157.555746        C
    1.420280   -2.459998  184.275746        C
    1.420280   -2.459998  210.995746        C
    1.420280   -2.459998  237.715746        C
    1.420280   -2.459998  264.435746        C
    2.130422   -3.690002   23.955746        C
    2.130422   -3.690002   50.675746        C
    2.130422   -3.690002   77.395746        C
    2.130422   -3.690002  104.115746        C
    2.130422   -3.690002  130.835746        C
    2.130422   -3.690002  157.555746        C
    2.130422   -3.690002  184.275746        C
    2.130422   -3.690002  210.995746        C
    2.130422   -3.690002  237.715746        C
    2.130422   -3.690002  264.435746        C
    3.550702   -3.690002   23.955746        C
    3.550702   -3.690002   50.675746        C
    3.550702   -3.690002   77.395746        C
    3.550702   -3.690002  104.115746        C
    3.550702   -3.690002  130.835746        C
    3.550702   -3.690002  157.555746        C
    3.550702   -3.690002  184.275746        C
    3.550702   -3.690002  210.995746        C
    3.550702   -3.690002  237.715746        C
    3.550702   -3.690002  264.435746        C
    1.521729   -1.932855   27.315759        C
    1.521729   -1.932855   54.035759        C
    1.521729   -1.932855   80.755759        C
    1.521729   -1.932855  107.475759        C
    1.521729   -1.932855  134.195759        C
    1.521729   -1.932855  160.915759        C
    1.521729   -1.932855  187.635759        C
    1.521729   -1.932855  214.355759        C
    1.521729   -1.932855  241.075759        C
    1.521729   -1.932855  267.795759        C
    2.840562   -2.460004   27.315759        C
    2.840562   -2.460004   54.035759        C
    2.840562   -2.460004   80.755759        C
    2.840562   -2.460004  107.475759        C
    2.840562   -2.460004  134.195759        C
    2.840562   -2.460004  160.915759        C
    2.840562   -2.460004  187.635759        C
    2.840562   -2.460004  214.355759        C
    2.840562   -2.460004  241.075759        C
    2.840562   -2.460004  267.795759        C
    3.043459   -3.865717   27.315759        C
    3.043459   -3.865717   54.035759        C
    3.043459   -3.865717   80.755759        C
    3.043459   -3.865717  107.475759        C
    3.043459   -3.865717  134.195759        C
    3.043459   -3.865717  160.915759        C
    3.043459   -3.865717  187.635759        C
    3.043459   -3.865717  214.355759        C
    3.043459   -3.865717  241.075759        C
    3.043459   -3.865717  267.795759        C
    2.231869    1.757141   27.315759        C
    2.231869    1.757141   54.035759        C
    2.231869    1.757141   80.755759        C
    2.231869    1.757141  107.475759        C
    2.231869    1.757141  134.195759        C
    2.231869    1.757141  160.915759        C
    2.231869    1.757141  187.635759        C
    2.231869    1.757141  214.355759        C
    2.231869    1.757141  241.075759        C
    2.231869    1.757141  267.795759        C
    2.434766    0.351428   27.315759        C
    2.434766    0.351428   54.035759        C
    2.434766    0.351428   80.755759        C
    2.434766    0.351428  107.475759        C
    2.434766    0.351428  134.195759        C
    2.434766    0.351428  160.915759        C
    2.434766    0.351428  187.635759        C
    2.434766    0.351428  214.355759        C
    2.434766    0.351428  241.075759        C
    2.434766    0.351428  267.795759        C
    3.753604   -0.175715   27.315759        C
    3.753604   -0.175715   54.035759        C
    3.753604   -0.175715   80.755759        C
    3.753604   -0.175715  107.475759        C
    3.753604   -0.175715  134.195759        C
    3.753604   -0.175715  160.915759        C
    3.753604   -0.175715  187.635759        C
    3.753604   -0.175715  214.355759        C
    3.753604   -0.175715  241.075759        C
    3.753604   -0.175715  267.795759        C
    3.956501   -1.581428   27.315759        C
    3.956501   -1.581428   54.035759        C
    3.956501   -1.581428   80.755759        C
    3.956501   -1.581428  107.475759        C
    3.956501   -1.581428  134.195759        C
    3.956501   -1.581428  160.915759        C
    3.956501   -1.581428  187.635759        C
    3.956501   -1.581428  214.355759        C
    3.956501   -1.581428  241.075759        C
    3.956501   -1.581428  267.795759        C
    5.275333   -2.108571   27.315759        C
    5.275333   -2.108571   54.035759        C
    5.275333   -2.108571   80.755759        C
    5.275333   -2.108571  107.475759        C
    5.275333   -2.108571  134.195759        C
    5.275333   -2.108571  160.915759        C
    5.275333   -2.108571  187.635759        C
    5.275333   -2.108571  214.355759        C
    5.275333   -2.108571  241.075759        C
    5.275333   -2.108571  267.795759        C
    3.347808    2.635717   27.315759        C
    3.347808    2.635717   54.035759        C
    3.347808    2.635717   80.755759        C
    3.347808    2.635717  107.475759        C
    3.347808    2.635717  134.195759        C
    3.347808    2.635717  160.915759        C
    3.347808    2.635717  187.635759        C
    3.347808    2.635717  214.355759        C
    3.347808    2.635717  241.075759        C
    3.347808    2.635717  267.795759        C
    4.666639    2.108574   27.315759        C
    4.666639    2.108574   54.035759        C
    4.666639    2.108574   80.755759        C
    4.666639    2.108574  107.475759        C
    4.666639    2.108574  134.195759        C
    4.666639    2.108574  160.915759        C
    4.666639    2.108574  187.635759        C
    4.666639    2.108574  214.355759        C
    4.666639    2.108574  241.075759        C
    4.666639    2.108574  267.795759        C
    4.869538    0.702855   27.315759        C
    4.869538    0.702855   54.035759        C
    4.869538    0.702855   80.755759        C
    4.869538    0.702855  107.475759        C
    4.869538    0.702855  134.195759        C
    4.869538    0.702855  160.915759        C
    4.869538    0.702855  187.635759        C
    4.869538    0.702855  214.355759        C
    4.869538    0.702855  241.075759        C
    4.869538    0.702855  267.795759        C
    1.927525   -4.744287   27.315759        C
    1.927525   -4.744287   54.035759        C
    1.927525   -4.744287   80.755759        C
    1.927525   -4.744287  107.475759        C
    1.927525   -4.744287  134.195759        C
    1.927525   -4.744287  160.915759        C
    1.927525   -4.744287  187.635759        C
    1.927525   -4.744287  214.355759        C
    1.927525   -4.744287  241.075759        C
    1.927525   -4.744287  267.795759        C
    0.000000    0.000000   27.315759        C
    0.000000    0.000000   54.035759        C
    0.000000    0.000000   80.755759        C
    0.000000    0.000000  107.475759        C
    0.000000    0.000000  134.195759        C
    0.000000    0.000000  160.915759        C
    0.000000    0.000000  187.635759        C
    0.000000    0.000000  214.355759        C
    0.000000    0.000000  241.075759        C
    0.000000    0.000000  267.795759        C
    1.318832   -0.527142   27.315759        C
    1.318832   -0.527142   54.035759        C
    1.318832   -0.527142   80.755759        C
    1.318832   -0.527142  107.475759        C
    1.318832   -0.527142  134.195759        C
    1.318832   -0.527142  160.915759        C
    1.318832   -0.527142  187.635759        C
    1.318832   -0.527142  214.355759        C
    1.318832   -0.527142  241.075759        C
    1.318832   -0.527142  267.795759        C
    4.463742    3.514287   30.675772        C
    4.463742    3.514287   57.395772        C
    4.463742    3.514287   84.115772        C
    4.463742    3.514287  110.835772        C
    4.463742    3.514287  137.555772        C
    4.463742    3.514287  164.275772        C
    4.463742    3.514287  190.995772        C
    4.463742    3.514287  217.715772        C
    4.463742    3.514287  244.435772        C
    4.463742    3.514287  271.155772        C
    1.521729   -1.932855   30.675772        C
    1.521729   -1.932855   57.395772        C
    1.521729   -1.932855   84.115772        C
    1.521729   -1.932855  110.835772        C
    1.521729   -1.932855  137.555772        C
    1.521729   -1.932855  164.275772        C
    1.521729   -1.932855  190.995772        C
    1.521729   -1.932855  217.715772        C
    1.521729   -1.932855  244.435772        C
    1.521729   -1.932855  271.155772        C
    1.724628   -3.338574   30.675772        C
    1.724628   -3.338574   57.395772        C
    1.724628   -3.338574   84.115772        C
    1.724628   -3.338574  110.835772        C
    1.724628   -3.338574  137.555772        C
    1.724628   -3.338574  164.275772        C
    1.724628   -3.338574  190.995772        C
    1.724628   -3.338574  217.715772        C
    1.724628   -3.338574  244.435772        C
    1.724628   -3.338574  271.155772        C
    3.043459   -3.865717   30.675772        C
    3.043459   -3.865717   57.395772        C
    3.043459   -3.865717   84.115772        C
    3.043459   -3.865717  110.835772        C
    3.043459   -3.865717  137.555772        C
    3.043459   -3.865717  164.275772        C
    3.043459   -3.865717  190.995772        C
    3.043459   -3.865717  217.715772        C
    3.043459   -3.865717  244.435772        C
    3.043459   -3.865717  271.155772        C
    1.115934    0.878571   30.675772        C
    1.115934    0.878571   57.395772        C
    1.115934    0.878571   84.115772        C
    1.115934    0.878571  110.835772        C
    1.115934    0.878571  137.555772        C
    1.115934    0.878571  164.275772        C
    1.115934    0.878571  190.995772        C
    1.115934    0.878571  217.715772        C
    1.115934    0.878571  244.435772        C
    1.115934    0.878571  271.155772        C
    2.434766    0.351428   30.675772        C
    2.434766    0.351428   57.395772        C
    2.434766    0.351428   84.115772        C
    2.434766    0.351428  110.835772        C
    2.434766    0.351428  137.555772        C
    2.434766    0.351428  164.275772        C
    2.434766    0.351428  190.995772        C
    2.434766    0.351428  217.715772        C
    2.434766    0.351428  244.435772        C
    2.434766    0.351428  271.155772        C
    2.637663   -1.054285   30.675772        C
    2.637663   -1.054285   57.395772        C
    2.637663   -1.054285   84.115772        C
    2.637663   -1.054285  110.835772        C
    2.637663   -1.054285  137.555772        C
    2.637663   -1.054285  164.275772        C
    2.637663   -1.054285  190.995772        C
    2.637663   -1.054285  217.715772        C
    2.637663   -1.054285  244.435772        C
    2.637663   -1.054285  271.155772        C
    3.956501   -1.581428   30.675772        C
    3.956501   -1.581428   57.395772        C
    3.956501   -1.581428   84.115772        C
    3.956501   -1.581428  110.835772        C
    3.956501   -1.581428  137.555772        C
    3.956501   -1.581428  164.275772        C
    3.956501   -1.581428  190.995772        C
    3.956501   -1.581428  217.715772        C
    3.956501   -1.581428  244.435772        C
    3.956501   -1.581428  271.155772        C
    4.159398   -2.987141   30.675772        C
    4.159398   -2.987141   57.395772        C
    4.159398   -2.987141   84.115772        C
    4.159398   -2.987141  110.835772        C
    4.159398   -2.987141  137.555772        C
    4.159398   -2.987141  164.275772        C
    4.159398   -2.987141  190.995772        C
    4.159398   -2.987141  217.715772        C
    4.159398   -2.987141  244.435772        C
    4.159398   -2.987141  271.155772        C
    3.347808    2.635717   30.675772        C
    3.347808    2.635717   57.395772        C
    3.347808    2.635717   84.115772        C
    3.347808    2.635717  110.835772        C
    3.347808    2.635717  137.555772        C
    3.347808    2.635717  164.275772        C
    3.347808    2.635717  190.995772        C
    3.347808    2.635717  217.715772        C
    3.347808    2.635717  244.435772        C
    3.347808    2.635717  271.155772        C
    3.550705    1.230004   30.675772        C
    3.550705    1.230004   57.395772        C
    3.550705    1.230004   84.115772        C
    3.550705    1.230004  110.835772        C
    3.550705    1.230004  137.555772        C
    3.550705    1.230004  164.275772        C
    3.550705    1.230004  190.995772        C
    3.550705    1.230004  217.715772        C
    3.550705    1.230004  244.435772        C
    3.550705    1.230004  271.155772        C
    4.869538    0.702855   30.675772        C
    4.869538    0.702855   57.395772        C
    4.869538    0.702855   84.115772        C
    4.869538    0.702855  110.835772        C
    4.869538    0.702855  137.555772        C
    4.869538    0.702855  164.275772        C
    4.869538    0.702855  190.995772        C
    4.869538    0.702855  217.715772        C
    4.869538    0.702855  244.435772        C
    4.869538    0.702855  271.155772        C
    5.072435   -0.702858   30.675772        C
    5.072435   -0.702858   57.395772        C
    5.072435   -0.702858   84.115772        C
    5.072435   -0.702858  110.835772        C
    5.072435   -0.702858  137.555772        C
    5.072435   -0.702858  164.275772        C
    5.072435   -0.702858  190.995772        C
    5.072435   -0.702858  217.715772        C
    5.072435   -0.702858  244.435772        C
    5.072435   -0.702858  271.155772        C
    0.000000    0.000000   30.675772        C
    0.000000    0.000000   57.395772        C
    0.000000    0.000000   84.115772        C
    0.000000    0.000000  110.835772        C
    0.000000    0.000000  137.555772        C
    0.000000    0.000000  164.275772        C
    0.000000    0.000000  190.995772        C
    0.000000    0.000000  217.715772        C
    0.000000    0.000000  244.435772        C
    0.000000    0.000000  271.155772        C
