Rotated POSCAR by SURFACE card in wt.in by WannierTools
1.0
    0.000000   -2.460000    0.000000
    2.130422    1.230000    0.000000
    0.000000    0.000000   33.440000
C     
    10
Direct
    0.000000    0.000000    0.299043        C
    0.333333    0.666667    0.299043        C
    0.666667    0.333333    0.399522        C
    0.000000    0.000000    0.399522        C
    0.333333    0.666667    0.500000        C
    0.666667    0.333333    0.500000        C
    0.000000    0.000000    0.600478        C
    0.333333    0.666667    0.600478        C
    0.666667    0.333333    0.700957        C
    0.000000    0.000000    0.700957        C
