POSCAR for generated by WannierTools
1.0
    0.000000   -2.456048    0.000000
    2.127000    1.228024    0.000000
    0.000000    0.000000  233.600000
C     
    40
Direct
    0.000000    0.000000    0.042808        C
    0.333333    0.666667    0.042808        C
    0.000000    0.000000    0.057192        C
    0.666667    0.333333    0.057192        C
    0.000000    0.000000    0.142808        C
    0.333333    0.666667    0.142808        C
    0.000000    0.000000    0.157192        C
    0.666667    0.333333    0.157192        C
    0.000000    0.000000    0.242808        C
    0.333333    0.666667    0.242808        C
    0.000000    0.000000    0.257192        C
    0.666667    0.333333    0.257192        C
    0.000000    0.000000    0.342808        C
    0.333333    0.666667    0.342808        C
    0.000000    0.000000    0.357192        C
    0.666667    0.333333    0.357192        C
    0.000000    0.000000    0.442808        C
    0.333333    0.666667    0.442808        C
    0.000000    0.000000    0.457192        C
    0.666667    0.333333    0.457192        C
    0.000000    0.000000    0.542808        C
    0.333333    0.666667    0.542808        C
    0.000000    0.000000    0.557192        C
    0.666667    0.333333    0.557192        C
    0.000000    0.000000    0.642808        C
    0.333333    0.666667    0.642808        C
    0.000000    0.000000    0.657192        C
    0.666667    0.333333    0.657192        C
    0.000000    0.000000    0.742808        C
    0.333333    0.666667    0.742808        C
    0.000000    0.000000    0.757192        C
    0.666667    0.333333    0.757192        C
    0.000000    0.000000    0.842808        C
    0.333333    0.666667    0.842808        C
    0.000000    0.000000    0.857192        C
    0.666667    0.333333    0.857192        C
    0.000000    0.000000    0.942808        C
    0.333333    0.666667    0.942808        C
    0.000000    0.000000    0.957192        C
    0.666667    0.333333    0.957192        C
