POSCAR for slab defined by SURFACE card and Nslab and Vacuum_thickness_in_Angstrom in wt.in by WannierTools
1.0
   -2.069000   -3.583614    0.000000
    2.069000   -3.583614    0.000000
    0.000000   20.340504   81.280002
Bi    Se    
    12    18
Cartesian
    0.000000    1.808489   18.654027       Bi
    0.000000    4.197564   28.200694       Bi
    0.000000    6.586639   37.747361       Bi
    0.000000    8.975714   47.294028       Bi
    0.000000   11.364789   56.840695       Bi
    0.000000   13.753864   66.387362       Bi
    0.000000   -0.580587   14.892640       Bi
    0.000000    1.808488   24.439307       Bi
    0.000000    4.197563   33.985974       Bi
    0.000000    6.586638   43.532641       Bi
    0.000000    8.975713   53.079308       Bi
    0.000000   11.364788   62.625975       Bi
    0.000000   -2.969663   16.773333       Se
    0.000000   -0.580588   26.320000       Se
    0.000000    1.808487   35.866667       Se
    0.000000    4.197562   45.413334       Se
    0.000000    6.586637   54.960001       Se
    0.000000    8.975712   64.506668       Se
    0.000000    1.808489   13.126507       Se
    0.000000    4.197564   22.673174       Se
    0.000000    6.586639   32.219841       Se
    0.000000    8.975714   41.766508       Se
    0.000000   11.364789   51.313175       Se
    0.000000   13.753864   60.859842       Se
    0.000000   -0.580587   20.420160       Se
    0.000000    1.808488   29.966827       Se
    0.000000    4.197563   39.513494       Se
    0.000000    6.586638   49.060161       Se
    0.000000    8.975713   58.606828       Se
    0.000000   11.364788   68.153495       Se
