orth WTe2
1.0
3.477000000       0.0000000000       0.0000000000
0.000000       6.249       0.0000000000
0.0000000000       0.0000000000       14.018000
W Te
4 8
Cart
0.0000000     3.7532744     10.71711
0.0000000     0.2487102     3.921464
1.7385000     2.4957256     3.70811
1.7385000     6.0002898     10.930464
0.0000000     5.3592049     12.8934045
1.7385000     0.8897951     5.8844045
0.0000000     4.0387912     5.2657902
1.7385000     2.2102088     12.2747902
0.0000000     1.8650141    1.7432069
1.7385000     4.3839859     8.7522069
0.0000000     1.2949178     9.3695597
1.7385000     4.9540822    2.3605597

