num_bands = 192  ! set to NBANDS by VASP
num_wann = 96

dis_num_iter = 1000
num_iter =   0
!postproc_setup = .true.
iprint=2
!wvfn_formatted=.true.
!bands_plot = .true.

!min of outer window
dis_win_min = -1.0
dis_win_max = 16     
!inner - 
dis_froz_min = 6.0000
dis_froz_max = 8.0000
wvfn_formatted=.true.
bands_plot = .true.
hr_plot =.true.

begin projections
W : s; dxy; dyz; dxz; dx2-y2; dz2
Te : px; py; pz
end projections


begin kpoint_path
G 0.00000  0.00000 0.0000 Y 0.00000  0.50000 0.0000
Y 0.00000  0.50000 0.0000 S 0.50000  0.50000 0.0000
S 0.50000  0.50000 0.0000 X 0.50000  0.00000 0.0000
X 0.50000  0.00000 0.0000 G 0.00000  0.00000 0.0000
G 0.00000  0.00000 0.0000 Z 0.00000  0.00000 0.5000
Z 0.00000  0.00000 0.5000 T 0.00000  0.50000 0.5000
T 0.0 0.5 0.5 R 0.5 0.5 0.5
R 0.5 0.5 0.5 U 0.5 0.0 0.5
U 0.5 0.0 0.5 Z 0.0 0.0 0.5 
end kpoint_path

spinors = .true.

begin unit_cell_cart
     3.4770000     0.0000000     0.0000000
     0.0000000     6.2490000     0.0000000
     0.0000000     0.0000000    14.0180000
end unit_cell_cart

begin atoms_cart
W        0.0000000     3.7532744    10.7171100
W        0.0000000     0.2487102     3.9214640
W        1.7385000     2.4957256     3.7081100
W        1.7385000     6.0002898    10.9304640
Te       0.0000000     5.3592049    12.8934045
Te       1.7385000     0.8897951     5.8844045
Te       0.0000000     4.0387912     5.2657902
Te       1.7385000     2.2102088    12.2747902
Te       0.0000000     1.8650141     1.7432069
Te       1.7385000     4.3839859     8.7522069
Te       0.0000000     1.2949178     9.3695597
Te       1.7385000     4.9540822     2.3605597
end atoms_cart

mp_grid =     8     6     4

begin kpoints
      0.000000000000      0.000000000000      0.000000000000
      0.125000000000      0.000000000000      0.000000000000
      0.250000000000      0.000000000000      0.000000000000
      0.375000000000      0.000000000000      0.000000000000
      0.500000000000      0.000000000000      0.000000000000
     -0.375000000000      0.000000000000      0.000000000000
     -0.250000000000      0.000000000000      0.000000000000
     -0.125000000000      0.000000000000      0.000000000000
      0.000000000000      0.166666666667      0.000000000000
      0.125000000000      0.166666666667      0.000000000000
      0.250000000000      0.166666666667      0.000000000000
      0.375000000000      0.166666666667      0.000000000000
      0.500000000000      0.166666666667      0.000000000000
     -0.375000000000      0.166666666667      0.000000000000
     -0.250000000000      0.166666666667      0.000000000000
     -0.125000000000      0.166666666667      0.000000000000
      0.000000000000      0.333333333333      0.000000000000
      0.125000000000      0.333333333333      0.000000000000
      0.250000000000      0.333333333333      0.000000000000
      0.375000000000      0.333333333333      0.000000000000
      0.500000000000      0.333333333333      0.000000000000
     -0.375000000000      0.333333333333      0.000000000000
     -0.250000000000      0.333333333333      0.000000000000
     -0.125000000000      0.333333333333      0.000000000000
      0.000000000000      0.500000000000      0.000000000000
      0.125000000000      0.500000000000      0.000000000000
      0.250000000000      0.500000000000      0.000000000000
      0.375000000000      0.500000000000      0.000000000000
      0.500000000000      0.500000000000      0.000000000000
     -0.375000000000      0.500000000000      0.000000000000
     -0.250000000000      0.500000000000      0.000000000000
     -0.125000000000      0.500000000000      0.000000000000
      0.000000000000     -0.333333333333      0.000000000000
      0.125000000000     -0.333333333333      0.000000000000
      0.250000000000     -0.333333333333      0.000000000000
      0.375000000000     -0.333333333333      0.000000000000
      0.500000000000     -0.333333333333      0.000000000000
     -0.375000000000     -0.333333333333      0.000000000000
     -0.250000000000     -0.333333333333      0.000000000000
     -0.125000000000     -0.333333333333      0.000000000000
      0.000000000000     -0.166666666667      0.000000000000
      0.125000000000     -0.166666666667      0.000000000000
      0.250000000000     -0.166666666667      0.000000000000
      0.375000000000     -0.166666666667      0.000000000000
      0.500000000000     -0.166666666667      0.000000000000
     -0.375000000000     -0.166666666667      0.000000000000
     -0.250000000000     -0.166666666667      0.000000000000
     -0.125000000000     -0.166666666667      0.000000000000
      0.000000000000      0.000000000000      0.250000000000
      0.125000000000      0.000000000000      0.250000000000
      0.250000000000      0.000000000000      0.250000000000
      0.375000000000      0.000000000000      0.250000000000
      0.500000000000      0.000000000000      0.250000000000
     -0.375000000000      0.000000000000      0.250000000000
     -0.250000000000      0.000000000000      0.250000000000
     -0.125000000000      0.000000000000      0.250000000000
      0.000000000000      0.166666666667      0.250000000000
      0.125000000000      0.166666666667      0.250000000000
      0.250000000000      0.166666666667      0.250000000000
      0.375000000000      0.166666666667      0.250000000000
      0.500000000000      0.166666666667      0.250000000000
     -0.375000000000      0.166666666667      0.250000000000
     -0.250000000000      0.166666666667      0.250000000000
     -0.125000000000      0.166666666667      0.250000000000
      0.000000000000      0.333333333333      0.250000000000
      0.125000000000      0.333333333333      0.250000000000
      0.250000000000      0.333333333333      0.250000000000
      0.375000000000      0.333333333333      0.250000000000
      0.500000000000      0.333333333333      0.250000000000
     -0.375000000000      0.333333333333      0.250000000000
     -0.250000000000      0.333333333333      0.250000000000
     -0.125000000000      0.333333333333      0.250000000000
      0.000000000000      0.500000000000      0.250000000000
      0.125000000000      0.500000000000      0.250000000000
      0.250000000000      0.500000000000      0.250000000000
      0.375000000000      0.500000000000      0.250000000000
      0.500000000000      0.500000000000      0.250000000000
     -0.375000000000      0.500000000000      0.250000000000
     -0.250000000000      0.500000000000      0.250000000000
     -0.125000000000      0.500000000000      0.250000000000
      0.000000000000     -0.333333333333      0.250000000000
      0.125000000000     -0.333333333333      0.250000000000
      0.250000000000     -0.333333333333      0.250000000000
      0.375000000000     -0.333333333333      0.250000000000
      0.500000000000     -0.333333333333      0.250000000000
     -0.375000000000     -0.333333333333      0.250000000000
     -0.250000000000     -0.333333333333      0.250000000000
     -0.125000000000     -0.333333333333      0.250000000000
      0.000000000000     -0.166666666667      0.250000000000
      0.125000000000     -0.166666666667      0.250000000000
      0.250000000000     -0.166666666667      0.250000000000
      0.375000000000     -0.166666666667      0.250000000000
      0.500000000000     -0.166666666667      0.250000000000
     -0.375000000000     -0.166666666667      0.250000000000
     -0.250000000000     -0.166666666667      0.250000000000
     -0.125000000000     -0.166666666667      0.250000000000
      0.000000000000      0.000000000000      0.500000000000
      0.125000000000      0.000000000000      0.500000000000
      0.250000000000      0.000000000000      0.500000000000
      0.375000000000      0.000000000000      0.500000000000
      0.500000000000      0.000000000000      0.500000000000
     -0.375000000000      0.000000000000      0.500000000000
     -0.250000000000      0.000000000000      0.500000000000
     -0.125000000000      0.000000000000      0.500000000000
      0.000000000000      0.166666666667      0.500000000000
      0.125000000000      0.166666666667      0.500000000000
      0.250000000000      0.166666666667      0.500000000000
      0.375000000000      0.166666666667      0.500000000000
      0.500000000000      0.166666666667      0.500000000000
     -0.375000000000      0.166666666667      0.500000000000
     -0.250000000000      0.166666666667      0.500000000000
     -0.125000000000      0.166666666667      0.500000000000
      0.000000000000      0.333333333333      0.500000000000
      0.125000000000      0.333333333333      0.500000000000
      0.250000000000      0.333333333333      0.500000000000
      0.375000000000      0.333333333333      0.500000000000
      0.500000000000      0.333333333333      0.500000000000
     -0.375000000000      0.333333333333      0.500000000000
     -0.250000000000      0.333333333333      0.500000000000
     -0.125000000000      0.333333333333      0.500000000000
      0.000000000000      0.500000000000      0.500000000000
      0.125000000000      0.500000000000      0.500000000000
      0.250000000000      0.500000000000      0.500000000000
      0.375000000000      0.500000000000      0.500000000000
      0.500000000000      0.500000000000      0.500000000000
     -0.375000000000      0.500000000000      0.500000000000
     -0.250000000000      0.500000000000      0.500000000000
     -0.125000000000      0.500000000000      0.500000000000
      0.000000000000     -0.333333333333      0.500000000000
      0.125000000000     -0.333333333333      0.500000000000
      0.250000000000     -0.333333333333      0.500000000000
      0.375000000000     -0.333333333333      0.500000000000
      0.500000000000     -0.333333333333      0.500000000000
     -0.375000000000     -0.333333333333      0.500000000000
     -0.250000000000     -0.333333333333      0.500000000000
     -0.125000000000     -0.333333333333      0.500000000000
      0.000000000000     -0.166666666667      0.500000000000
      0.125000000000     -0.166666666667      0.500000000000
      0.250000000000     -0.166666666667      0.500000000000
      0.375000000000     -0.166666666667      0.500000000000
      0.500000000000     -0.166666666667      0.500000000000
     -0.375000000000     -0.166666666667      0.500000000000
     -0.250000000000     -0.166666666667      0.500000000000
     -0.125000000000     -0.166666666667      0.500000000000
      0.000000000000      0.000000000000     -0.250000000000
      0.125000000000      0.000000000000     -0.250000000000
      0.250000000000      0.000000000000     -0.250000000000
      0.375000000000      0.000000000000     -0.250000000000
      0.500000000000      0.000000000000     -0.250000000000
     -0.375000000000      0.000000000000     -0.250000000000
     -0.250000000000      0.000000000000     -0.250000000000
     -0.125000000000      0.000000000000     -0.250000000000
      0.000000000000      0.166666666667     -0.250000000000
      0.125000000000      0.166666666667     -0.250000000000
      0.250000000000      0.166666666667     -0.250000000000
      0.375000000000      0.166666666667     -0.250000000000
      0.500000000000      0.166666666667     -0.250000000000
     -0.375000000000      0.166666666667     -0.250000000000
     -0.250000000000      0.166666666667     -0.250000000000
     -0.125000000000      0.166666666667     -0.250000000000
      0.000000000000      0.333333333333     -0.250000000000
      0.125000000000      0.333333333333     -0.250000000000
      0.250000000000      0.333333333333     -0.250000000000
      0.375000000000      0.333333333333     -0.250000000000
      0.500000000000      0.333333333333     -0.250000000000
     -0.375000000000      0.333333333333     -0.250000000000
     -0.250000000000      0.333333333333     -0.250000000000
     -0.125000000000      0.333333333333     -0.250000000000
      0.000000000000      0.500000000000     -0.250000000000
      0.125000000000      0.500000000000     -0.250000000000
      0.250000000000      0.500000000000     -0.250000000000
      0.375000000000      0.500000000000     -0.250000000000
      0.500000000000      0.500000000000     -0.250000000000
     -0.375000000000      0.500000000000     -0.250000000000
     -0.250000000000      0.500000000000     -0.250000000000
     -0.125000000000      0.500000000000     -0.250000000000
      0.000000000000     -0.333333333333     -0.250000000000
      0.125000000000     -0.333333333333     -0.250000000000
      0.250000000000     -0.333333333333     -0.250000000000
      0.375000000000     -0.333333333333     -0.250000000000
      0.500000000000     -0.333333333333     -0.250000000000
     -0.375000000000     -0.333333333333     -0.250000000000
     -0.250000000000     -0.333333333333     -0.250000000000
     -0.125000000000     -0.333333333333     -0.250000000000
      0.000000000000     -0.166666666667     -0.250000000000
      0.125000000000     -0.166666666667     -0.250000000000
      0.250000000000     -0.166666666667     -0.250000000000
      0.375000000000     -0.166666666667     -0.250000000000
      0.500000000000     -0.166666666667     -0.250000000000
     -0.375000000000     -0.166666666667     -0.250000000000
     -0.250000000000     -0.166666666667     -0.250000000000
     -0.125000000000     -0.166666666667     -0.250000000000
end kpoints
