 num_bands       = 20
 num_wann        = 20

!!! Disentanglement parameters !!!
!dis_froz_min     = 7.
!dis_froz_max     = 9.
!dis_mix_ratio    = 0.5

!!! Iterations &c. !!!
 iprint                = 1
 num_iter              = 2000 
 num_print_cycles      =   100
 conv_window           = 3
!conv_tol              = 1e-10
 dis_num_iter          = 2000 
!dis_conv_window       = 3
!dis_conv_tol          = 1e-10
!restart               = default | wannierise | plot | transport

!!! Post-processing options !!!
!write_proj             = .true.
!write_xyz              = .true.
 translate_home_cell    = .true.
 hr_plot                = .true.
!fermi_surface_plot     = .true.

!!! Band structure !!!
!!! needs `kpoint_path' block
!bands_plot             = .true.
!bands_num_points       = 50
!bands_plot_format      = gnuplot xmgrace
!bands_plot_project     = 1-3
!bands_plot_mode        = s-k | cut [Slater-Koster | truncate Hamiltonian]
 
begin unit_cell_cart
  Bohr
   0.0000000   8.9565460   5.4597025
   9.2256430   0.0000000   5.4597025
   9.2256430   8.9565460   0.0000000
end unit_cell_cart
 
begin atoms_cart
  Bohr
  1 15.54392 11.36227  5.44955
  2  2.90737  6.55082  5.44955
  3  1.70545 11.02909  8.17940
  4  7.52019 15.84055  8.17940
  5  6.25831 11.37463  5.71675
  6 12.19298  6.53846  5.71675
  7 10.87113 11.01673  8.44660
  8 16.80580 15.85291  8.44660
  9  0.00000  0.00000 10.86241
  10  4.61282  4.47827  2.67285
end atoms_cart
 
!!!! Dummy `projections' block for guiding centres !!!
guiding_centres = .true.
begin projections
  9:s
  9:s
  9:s
  9:s
  9:s
  9:s
  9:s
  9:s
  9:s
  9:s
  10:s
  10:s
  10:s
  10:s
  10:s
  10:s
  10:s
  10:s
  10:s
  10:s
end projections
 
!!! K-Points !!!
mp_grid : 8 8 8
begin kpoints
  0.000000000  0.000000000  0.000000000
 -0.000000000 -0.000000000  0.125000000
 -0.000000000 -0.000000000  0.250000000
 -0.000000000 -0.000000000  0.375000000
 -0.000000000 -0.000000000  0.500000000
 -0.000000000 -0.000000000  0.625000000
 -0.000000000 -0.000000000  0.750000000
 -0.000000000 -0.000000000  0.875000000
  0.000000000  0.125000000  0.000000000
  0.000000000  0.125000000  0.125000000
 -0.000000000  0.125000000  0.250000000
 -0.000000000  0.125000000  0.375000000
 -0.000000000  0.125000000  0.500000000
 -0.000000000  0.125000000  0.625000000
 -0.000000000  0.125000000  0.750000000
 -0.000000000  0.125000000  0.875000000
  0.000000000  0.250000000  0.000000000
  0.000000000  0.250000000  0.125000000
  0.000000000  0.250000000  0.250000000
 -0.000000000  0.250000000  0.375000000
 -0.000000000  0.250000000  0.500000000
 -0.000000000  0.250000000  0.625000000
 -0.000000000  0.250000000  0.750000000
 -0.000000000  0.250000000  0.875000000
  0.000000000  0.375000000  0.000000000
  0.000000000  0.375000000  0.125000000
  0.000000000  0.375000000  0.250000000
  0.000000000  0.375000000  0.375000000
 -0.000000000  0.375000000  0.500000000
 -0.000000000  0.375000000  0.625000000
 -0.000000000  0.375000000  0.750000000
 -0.000000000  0.375000000  0.875000000
  0.000000000  0.500000000  0.000000000
  0.000000000  0.500000000  0.125000000
  0.000000000  0.500000000  0.250000000
  0.000000000  0.500000000  0.375000000
  0.000000000  0.500000000  0.500000000
 -0.000000000  0.500000000  0.625000000
 -0.000000000  0.500000000  0.750000000
 -0.000000000  0.500000000  0.875000000
  0.000000000  0.625000000  0.000000000
  0.000000000  0.625000000  0.125000000
  0.000000000  0.625000000  0.250000000
  0.000000000  0.625000000  0.375000000
  0.000000000  0.625000000  0.500000000
  0.000000000  0.625000000  0.625000000
 -0.000000000  0.625000000  0.750000000
 -0.000000000  0.625000000  0.875000000
  0.000000000  0.750000000  0.000000000
  0.000000000  0.750000000  0.125000000
  0.000000000  0.750000000  0.250000000
  0.000000000  0.750000000  0.375000000
  0.000000000  0.750000000  0.500000000
  0.000000000  0.750000000  0.625000000
  0.000000000  0.750000000  0.750000000
 -0.000000000  0.750000000  0.875000000
  0.000000000  0.875000000  0.000000000
  0.000000000  0.875000000  0.125000000
  0.000000000  0.875000000  0.250000000
  0.000000000  0.875000000  0.375000000
  0.000000000  0.875000000  0.500000000
  0.000000000  0.875000000  0.625000000
  0.000000000  0.875000000  0.750000000
  0.000000000  0.875000000  0.875000000
  0.125000000  0.000000000  0.000000000
  0.125000000  0.000000000  0.125000000
  0.125000000 -0.000000000  0.250000000
  0.125000000 -0.000000000  0.375000000
  0.125000000 -0.000000000  0.500000000
  0.125000000 -0.000000000  0.625000000
  0.125000000 -0.000000000  0.750000000
  0.125000000 -0.000000000  0.875000000
  0.125000000  0.125000000  0.000000000
  0.125000000  0.125000000  0.125000000
  0.125000000  0.125000000  0.250000000
  0.125000000  0.125000000  0.375000000
  0.125000000  0.125000000  0.500000000
  0.125000000  0.125000000  0.625000000
  0.125000000  0.125000000  0.750000000
  0.125000000  0.125000000  0.875000000
  0.125000000  0.250000000  0.000000000
  0.125000000  0.250000000  0.125000000
  0.125000000  0.250000000  0.250000000
  0.125000000  0.250000000  0.375000000
  0.125000000  0.250000000  0.500000000
  0.125000000  0.250000000  0.625000000
  0.125000000  0.250000000  0.750000000
  0.125000000  0.250000000  0.875000000
  0.125000000  0.375000000  0.000000000
  0.125000000  0.375000000  0.125000000
  0.125000000  0.375000000  0.250000000
  0.125000000  0.375000000  0.375000000
  0.125000000  0.375000000  0.500000000
  0.125000000  0.375000000  0.625000000
  0.125000000  0.375000000  0.750000000
  0.125000000  0.375000000  0.875000000
  0.125000000  0.500000000  0.000000000
  0.125000000  0.500000000  0.125000000
  0.125000000  0.500000000  0.250000000
  0.125000000  0.500000000  0.375000000
  0.125000000  0.500000000  0.500000000
  0.125000000  0.500000000  0.625000000
  0.125000000  0.500000000  0.750000000
  0.125000000  0.500000000  0.875000000
  0.125000000  0.625000000  0.000000000
  0.125000000  0.625000000  0.125000000
  0.125000000  0.625000000  0.250000000
  0.125000000  0.625000000  0.375000000
  0.125000000  0.625000000  0.500000000
  0.125000000  0.625000000  0.625000000
  0.125000000  0.625000000  0.750000000
  0.125000000  0.625000000  0.875000000
  0.125000000  0.750000000  0.000000000
  0.125000000  0.750000000  0.125000000
  0.125000000  0.750000000  0.250000000
  0.125000000  0.750000000  0.375000000
  0.125000000  0.750000000  0.500000000
  0.125000000  0.750000000  0.625000000
  0.125000000  0.750000000  0.750000000
  0.125000000  0.750000000  0.875000000
  0.125000000  0.875000000  0.000000000
  0.125000000  0.875000000  0.125000000
  0.125000000  0.875000000  0.250000000
  0.125000000  0.875000000  0.375000000
  0.125000000  0.875000000  0.500000000
  0.125000000  0.875000000  0.625000000
  0.125000000  0.875000000  0.750000000
  0.125000000  0.875000000  0.875000000
  0.250000000  0.000000000  0.000000000
  0.250000000  0.000000000  0.125000000
  0.250000000  0.000000000  0.250000000
  0.250000000 -0.000000000  0.375000000
  0.250000000 -0.000000000  0.500000000
  0.250000000 -0.000000000  0.625000000
  0.250000000 -0.000000000  0.750000000
  0.250000000 -0.000000000  0.875000000
  0.250000000  0.125000000  0.000000000
  0.250000000  0.125000000  0.125000000
  0.250000000  0.125000000  0.250000000
  0.250000000  0.125000000  0.375000000
  0.250000000  0.125000000  0.500000000
  0.250000000  0.125000000  0.625000000
  0.250000000  0.125000000  0.750000000
  0.250000000  0.125000000  0.875000000
  0.250000000  0.250000000  0.000000000
  0.250000000  0.250000000  0.125000000
  0.250000000  0.250000000  0.250000000
  0.250000000  0.250000000  0.375000000
  0.250000000  0.250000000  0.500000000
  0.250000000  0.250000000  0.625000000
  0.250000000  0.250000000  0.750000000
  0.250000000  0.250000000  0.875000000
  0.250000000  0.375000000  0.000000000
  0.250000000  0.375000000  0.125000000
  0.250000000  0.375000000  0.250000000
  0.250000000  0.375000000  0.375000000
  0.250000000  0.375000000  0.500000000
  0.250000000  0.375000000  0.625000000
  0.250000000  0.375000000  0.750000000
  0.250000000  0.375000000  0.875000000
  0.250000000  0.500000000  0.000000000
  0.250000000  0.500000000  0.125000000
  0.250000000  0.500000000  0.250000000
  0.250000000  0.500000000  0.375000000
  0.250000000  0.500000000  0.500000000
  0.250000000  0.500000000  0.625000000
  0.250000000  0.500000000  0.750000000
  0.250000000  0.500000000  0.875000000
  0.250000000  0.625000000  0.000000000
  0.250000000  0.625000000  0.125000000
  0.250000000  0.625000000  0.250000000
  0.250000000  0.625000000  0.375000000
  0.250000000  0.625000000  0.500000000
  0.250000000  0.625000000  0.625000000
  0.250000000  0.625000000  0.750000000
  0.250000000  0.625000000  0.875000000
  0.250000000  0.750000000  0.000000000
  0.250000000  0.750000000  0.125000000
  0.250000000  0.750000000  0.250000000
  0.250000000  0.750000000  0.375000000
  0.250000000  0.750000000  0.500000000
  0.250000000  0.750000000  0.625000000
  0.250000000  0.750000000  0.750000000
  0.250000000  0.750000000  0.875000000
  0.250000000  0.875000000  0.000000000
  0.250000000  0.875000000  0.125000000
  0.250000000  0.875000000  0.250000000
  0.250000000  0.875000000  0.375000000
  0.250000000  0.875000000  0.500000000
  0.250000000  0.875000000  0.625000000
  0.250000000  0.875000000  0.750000000
  0.250000000  0.875000000  0.875000000
  0.375000000  0.000000000  0.000000000
  0.375000000  0.000000000  0.125000000
  0.375000000  0.000000000  0.250000000
  0.375000000  0.000000000  0.375000000
  0.375000000 -0.000000000  0.500000000
  0.375000000 -0.000000000  0.625000000
  0.375000000 -0.000000000  0.750000000
  0.375000000 -0.000000000  0.875000000
  0.375000000  0.125000000  0.000000000
  0.375000000  0.125000000  0.125000000
  0.375000000  0.125000000  0.250000000
  0.375000000  0.125000000  0.375000000
  0.375000000  0.125000000  0.500000000
  0.375000000  0.125000000  0.625000000
  0.375000000  0.125000000  0.750000000
  0.375000000  0.125000000  0.875000000
  0.375000000  0.250000000  0.000000000
  0.375000000  0.250000000  0.125000000
  0.375000000  0.250000000  0.250000000
  0.375000000  0.250000000  0.375000000
  0.375000000  0.250000000  0.500000000
  0.375000000  0.250000000  0.625000000
  0.375000000  0.250000000  0.750000000
  0.375000000  0.250000000  0.875000000
  0.375000000  0.375000000  0.000000000
  0.375000000  0.375000000  0.125000000
  0.375000000  0.375000000  0.250000000
  0.375000000  0.375000000  0.375000000
  0.375000000  0.375000000  0.500000000
  0.375000000  0.375000000  0.625000000
  0.375000000  0.375000000  0.750000000
  0.375000000  0.375000000  0.875000000
  0.375000000  0.500000000  0.000000000
  0.375000000  0.500000000  0.125000000
  0.375000000  0.500000000  0.250000000
  0.375000000  0.500000000  0.375000000
  0.375000000  0.500000000  0.500000000
  0.375000000  0.500000000  0.625000000
  0.375000000  0.500000000  0.750000000
  0.375000000  0.500000000  0.875000000
  0.375000000  0.625000000  0.000000000
  0.375000000  0.625000000  0.125000000
  0.375000000  0.625000000  0.250000000
  0.375000000  0.625000000  0.375000000
  0.375000000  0.625000000  0.500000000
  0.375000000  0.625000000  0.625000000
  0.375000000  0.625000000  0.750000000
  0.375000000  0.625000000  0.875000000
  0.375000000  0.750000000  0.000000000
  0.375000000  0.750000000  0.125000000
  0.375000000  0.750000000  0.250000000
  0.375000000  0.750000000  0.375000000
  0.375000000  0.750000000  0.500000000
  0.375000000  0.750000000  0.625000000
  0.375000000  0.750000000  0.750000000
  0.375000000  0.750000000  0.875000000
  0.375000000  0.875000000  0.000000000
  0.375000000  0.875000000  0.125000000
  0.375000000  0.875000000  0.250000000
  0.375000000  0.875000000  0.375000000
  0.375000000  0.875000000  0.500000000
  0.375000000  0.875000000  0.625000000
  0.375000000  0.875000000  0.750000000
  0.375000000  0.875000000  0.875000000
  0.500000000  0.000000000  0.000000000
  0.500000000  0.000000000  0.125000000
  0.500000000  0.000000000  0.250000000
  0.500000000  0.000000000  0.375000000
  0.500000000  0.000000000  0.500000000
  0.500000000 -0.000000000  0.625000000
  0.500000000 -0.000000000  0.750000000
  0.500000000 -0.000000000  0.875000000
  0.500000000  0.125000000  0.000000000
  0.500000000  0.125000000  0.125000000
  0.500000000  0.125000000  0.250000000
  0.500000000  0.125000000  0.375000000
  0.500000000  0.125000000  0.500000000
  0.500000000  0.125000000  0.625000000
  0.500000000  0.125000000  0.750000000
  0.500000000  0.125000000  0.875000000
  0.500000000  0.250000000  0.000000000
  0.500000000  0.250000000  0.125000000
  0.500000000  0.250000000  0.250000000
  0.500000000  0.250000000  0.375000000
  0.500000000  0.250000000  0.500000000
  0.500000000  0.250000000  0.625000000
  0.500000000  0.250000000  0.750000000
  0.500000000  0.250000000  0.875000000
  0.500000000  0.375000000  0.000000000
  0.500000000  0.375000000  0.125000000
  0.500000000  0.375000000  0.250000000
  0.500000000  0.375000000  0.375000000
  0.500000000  0.375000000  0.500000000
  0.500000000  0.375000000  0.625000000
  0.500000000  0.375000000  0.750000000
  0.500000000  0.375000000  0.875000000
  0.500000000  0.500000000  0.000000000
  0.500000000  0.500000000  0.125000000
  0.500000000  0.500000000  0.250000000
  0.500000000  0.500000000  0.375000000
  0.500000000  0.500000000  0.500000000
  0.500000000  0.500000000  0.625000000
  0.500000000  0.500000000  0.750000000
  0.500000000  0.500000000  0.875000000
  0.500000000  0.625000000  0.000000000
  0.500000000  0.625000000  0.125000000
  0.500000000  0.625000000  0.250000000
  0.500000000  0.625000000  0.375000000
  0.500000000  0.625000000  0.500000000
  0.500000000  0.625000000  0.625000000
  0.500000000  0.625000000  0.750000000
  0.500000000  0.625000000  0.875000000
  0.500000000  0.750000000  0.000000000
  0.500000000  0.750000000  0.125000000
  0.500000000  0.750000000  0.250000000
  0.500000000  0.750000000  0.375000000
  0.500000000  0.750000000  0.500000000
  0.500000000  0.750000000  0.625000000
  0.500000000  0.750000000  0.750000000
  0.500000000  0.750000000  0.875000000
  0.500000000  0.875000000  0.000000000
  0.500000000  0.875000000  0.125000000
  0.500000000  0.875000000  0.250000000
  0.500000000  0.875000000  0.375000000
  0.500000000  0.875000000  0.500000000
  0.500000000  0.875000000  0.625000000
  0.500000000  0.875000000  0.750000000
  0.500000000  0.875000000  0.875000000
  0.625000000  0.000000000  0.000000000
  0.625000000  0.000000000  0.125000000
  0.625000000  0.000000000  0.250000000
  0.625000000  0.000000000  0.375000000
  0.625000000  0.000000000  0.500000000
  0.625000000  0.000000000  0.625000000
  0.625000000 -0.000000000  0.750000000
  0.625000000 -0.000000000  0.875000000
  0.625000000  0.125000000  0.000000000
  0.625000000  0.125000000  0.125000000
  0.625000000  0.125000000  0.250000000
  0.625000000  0.125000000  0.375000000
  0.625000000  0.125000000  0.500000000
  0.625000000  0.125000000  0.625000000
  0.625000000  0.125000000  0.750000000
  0.625000000  0.125000000  0.875000000
  0.625000000  0.250000000  0.000000000
  0.625000000  0.250000000  0.125000000
  0.625000000  0.250000000  0.250000000
  0.625000000  0.250000000  0.375000000
  0.625000000  0.250000000  0.500000000
  0.625000000  0.250000000  0.625000000
  0.625000000  0.250000000  0.750000000
  0.625000000  0.250000000  0.875000000
  0.625000000  0.375000000  0.000000000
  0.625000000  0.375000000  0.125000000
  0.625000000  0.375000000  0.250000000
  0.625000000  0.375000000  0.375000000
  0.625000000  0.375000000  0.500000000
  0.625000000  0.375000000  0.625000000
  0.625000000  0.375000000  0.750000000
  0.625000000  0.375000000  0.875000000
  0.625000000  0.500000000  0.000000000
  0.625000000  0.500000000  0.125000000
  0.625000000  0.500000000  0.250000000
  0.625000000  0.500000000  0.375000000
  0.625000000  0.500000000  0.500000000
  0.625000000  0.500000000  0.625000000
  0.625000000  0.500000000  0.750000000
  0.625000000  0.500000000  0.875000000
  0.625000000  0.625000000  0.000000000
  0.625000000  0.625000000  0.125000000
  0.625000000  0.625000000  0.250000000
  0.625000000  0.625000000  0.375000000
  0.625000000  0.625000000  0.500000000
  0.625000000  0.625000000  0.625000000
  0.625000000  0.625000000  0.750000000
  0.625000000  0.625000000  0.875000000
  0.625000000  0.750000000  0.000000000
  0.625000000  0.750000000  0.125000000
  0.625000000  0.750000000  0.250000000
  0.625000000  0.750000000  0.375000000
  0.625000000  0.750000000  0.500000000
  0.625000000  0.750000000  0.625000000
  0.625000000  0.750000000  0.750000000
  0.625000000  0.750000000  0.875000000
  0.625000000  0.875000000  0.000000000
  0.625000000  0.875000000  0.125000000
  0.625000000  0.875000000  0.250000000
  0.625000000  0.875000000  0.375000000
  0.625000000  0.875000000  0.500000000
  0.625000000  0.875000000  0.625000000
  0.625000000  0.875000000  0.750000000
  0.625000000  0.875000000  0.875000000
  0.750000000  0.000000000  0.000000000
  0.750000000  0.000000000  0.125000000
  0.750000000  0.000000000  0.250000000
  0.750000000  0.000000000  0.375000000
  0.750000000  0.000000000  0.500000000
  0.750000000  0.000000000  0.625000000
  0.750000000  0.000000000  0.750000000
  0.750000000 -0.000000000  0.875000000
  0.750000000  0.125000000  0.000000000
  0.750000000  0.125000000  0.125000000
  0.750000000  0.125000000  0.250000000
  0.750000000  0.125000000  0.375000000
  0.750000000  0.125000000  0.500000000
  0.750000000  0.125000000  0.625000000
  0.750000000  0.125000000  0.750000000
  0.750000000  0.125000000  0.875000000
  0.750000000  0.250000000  0.000000000
  0.750000000  0.250000000  0.125000000
  0.750000000  0.250000000  0.250000000
  0.750000000  0.250000000  0.375000000
  0.750000000  0.250000000  0.500000000
  0.750000000  0.250000000  0.625000000
  0.750000000  0.250000000  0.750000000
  0.750000000  0.250000000  0.875000000
  0.750000000  0.375000000  0.000000000
  0.750000000  0.375000000  0.125000000
  0.750000000  0.375000000  0.250000000
  0.750000000  0.375000000  0.375000000
  0.750000000  0.375000000  0.500000000
  0.750000000  0.375000000  0.625000000
  0.750000000  0.375000000  0.750000000
  0.750000000  0.375000000  0.875000000
  0.750000000  0.500000000  0.000000000
  0.750000000  0.500000000  0.125000000
  0.750000000  0.500000000  0.250000000
  0.750000000  0.500000000  0.375000000
  0.750000000  0.500000000  0.500000000
  0.750000000  0.500000000  0.625000000
  0.750000000  0.500000000  0.750000000
  0.750000000  0.500000000  0.875000000
  0.750000000  0.625000000  0.000000000
  0.750000000  0.625000000  0.125000000
  0.750000000  0.625000000  0.250000000
  0.750000000  0.625000000  0.375000000
  0.750000000  0.625000000  0.500000000
  0.750000000  0.625000000  0.625000000
  0.750000000  0.625000000  0.750000000
  0.750000000  0.625000000  0.875000000
  0.750000000  0.750000000  0.000000000
  0.750000000  0.750000000  0.125000000
  0.750000000  0.750000000  0.250000000
  0.750000000  0.750000000  0.375000000
  0.750000000  0.750000000  0.500000000
  0.750000000  0.750000000  0.625000000
  0.750000000  0.750000000  0.750000000
  0.750000000  0.750000000  0.875000000
  0.750000000  0.875000000  0.000000000
  0.750000000  0.875000000  0.125000000
  0.750000000  0.875000000  0.250000000
  0.750000000  0.875000000  0.375000000
  0.750000000  0.875000000  0.500000000
  0.750000000  0.875000000  0.625000000
  0.750000000  0.875000000  0.750000000
  0.750000000  0.875000000  0.875000000
  0.875000000  0.000000000  0.000000000
  0.875000000  0.000000000  0.125000000
  0.875000000  0.000000000  0.250000000
  0.875000000  0.000000000  0.375000000
  0.875000000  0.000000000  0.500000000
  0.875000000  0.000000000  0.625000000
  0.875000000  0.000000000  0.750000000
  0.875000000  0.000000000  0.875000000
  0.875000000  0.125000000  0.000000000
  0.875000000  0.125000000  0.125000000
  0.875000000  0.125000000  0.250000000
  0.875000000  0.125000000  0.375000000
  0.875000000  0.125000000  0.500000000
  0.875000000  0.125000000  0.625000000
  0.875000000  0.125000000  0.750000000
  0.875000000  0.125000000  0.875000000
  0.875000000  0.250000000  0.000000000
  0.875000000  0.250000000  0.125000000
  0.875000000  0.250000000  0.250000000
  0.875000000  0.250000000  0.375000000
  0.875000000  0.250000000  0.500000000
  0.875000000  0.250000000  0.625000000
  0.875000000  0.250000000  0.750000000
  0.875000000  0.250000000  0.875000000
  0.875000000  0.375000000  0.000000000
  0.875000000  0.375000000  0.125000000
  0.875000000  0.375000000  0.250000000
  0.875000000  0.375000000  0.375000000
  0.875000000  0.375000000  0.500000000
  0.875000000  0.375000000  0.625000000
  0.875000000  0.375000000  0.750000000
  0.875000000  0.375000000  0.875000000
  0.875000000  0.500000000  0.000000000
  0.875000000  0.500000000  0.125000000
  0.875000000  0.500000000  0.250000000
  0.875000000  0.500000000  0.375000000
  0.875000000  0.500000000  0.500000000
  0.875000000  0.500000000  0.625000000
  0.875000000  0.500000000  0.750000000
  0.875000000  0.500000000  0.875000000
  0.875000000  0.625000000  0.000000000
  0.875000000  0.625000000  0.125000000
  0.875000000  0.625000000  0.250000000
  0.875000000  0.625000000  0.375000000
  0.875000000  0.625000000  0.500000000
  0.875000000  0.625000000  0.625000000
  0.875000000  0.625000000  0.750000000
  0.875000000  0.625000000  0.875000000
  0.875000000  0.750000000  0.000000000
  0.875000000  0.750000000  0.125000000
  0.875000000  0.750000000  0.250000000
  0.875000000  0.750000000  0.375000000
  0.875000000  0.750000000  0.500000000
  0.875000000  0.750000000  0.625000000
  0.875000000  0.750000000  0.750000000
  0.875000000  0.750000000  0.875000000
  0.875000000  0.875000000  0.000000000
  0.875000000  0.875000000  0.125000000
  0.875000000  0.875000000  0.250000000
  0.875000000  0.875000000  0.375000000
  0.875000000  0.875000000  0.500000000
  0.875000000  0.875000000  0.625000000
  0.875000000  0.875000000  0.750000000
  0.875000000  0.875000000  0.875000000
end kpoints
