W1 C1
1.0
        2.9283208848         0.0000000000         0.0000000000
       -1.4641604424         2.5360002766         0.0000000000
        0.0000000000         0.0000000000         2.8529071808
    W    C
    1    1
Direct
     0.000000000         0.000000000         0.000000000
     0.666666667         0.333333333         0.500000000
