num_bands =    48 
num_wann =    24   
dis_win_min       = -0.9670d0
dis_win_max       = 43.03d0
dis_froz_min      =  0.9670d0
dis_froz_max      =  13.04d0
dis_num_iter      =  1000
num_iter      =  500
num_print_cycles = 10 
dis_mix_ratio = 0.50
hr_plot =.true.

begin projections
W: s; p; d 
C: p 
end projections

spinors = .true.
fermi_energy = 7.836506
kpath = true
kpath_task = bands
#kpath_bands_colour = spin
kpath_num_points = 101
begin kpoint_path
A 0.0    0.0      0.0 B 0.50    0.0   0.0
B 0.50    0.0   0.0   C 0.50    0.0   0.50
C 0.50   0.0   0.50   D 0.0    0.0   0.50
D   0.0    0.0   0.50 E   0.3333330    0.33333330   0.50
E 0.3333330    0.33333330   0.50   F  0.5  0.0   0.0
F 0.5  0.0  0.0 G 0.3333330    0.33333330   0.0
G  0.33333330    0.333333330   0.0 H 0.0    0.0   0.0
H 0.0    0.0   0.0 I 0.0    0.0   0.50
end kpoint_path


begin unit_cell_cart
     2.9283209     0.0000000     0.0000000
    -1.4641604     2.5360003     0.0000000
     0.0000000     0.0000000     2.8529072
end unit_cell_cart

begin atoms_cart
W        0.0000000     0.0000000     0.0000000
C        1.4641619     0.8453325     1.4264536
end atoms_cart

mp_grid =    11    11    11

begin kpoints
      0.000000000000      0.000000000000      0.000000000000
      0.090909090909      0.000000000000      0.000000000000
      0.181818181818      0.000000000000      0.000000000000
      0.272727272727      0.000000000000      0.000000000000
      0.363636363636      0.000000000000      0.000000000000
      0.454545454545      0.000000000000      0.000000000000
     -0.454545454545      0.000000000000      0.000000000000
     -0.363636363636      0.000000000000      0.000000000000
     -0.272727272727      0.000000000000      0.000000000000
     -0.181818181818      0.000000000000      0.000000000000
     -0.090909090909      0.000000000000      0.000000000000
      0.000000000000      0.090909090909      0.000000000000
      0.090909090909      0.090909090909      0.000000000000
      0.181818181818      0.090909090909      0.000000000000
      0.272727272727      0.090909090909      0.000000000000
      0.363636363636      0.090909090909      0.000000000000
      0.454545454545      0.090909090909      0.000000000000
     -0.454545454545      0.090909090909      0.000000000000
     -0.363636363636      0.090909090909      0.000000000000
     -0.272727272727      0.090909090909      0.000000000000
     -0.181818181818      0.090909090909      0.000000000000
     -0.090909090909      0.090909090909      0.000000000000
      0.000000000000      0.181818181818      0.000000000000
      0.090909090909      0.181818181818      0.000000000000
      0.181818181818      0.181818181818      0.000000000000
      0.272727272727      0.181818181818      0.000000000000
      0.363636363636      0.181818181818      0.000000000000
      0.454545454545      0.181818181818      0.000000000000
     -0.454545454545      0.181818181818      0.000000000000
     -0.363636363636      0.181818181818      0.000000000000
     -0.272727272727      0.181818181818      0.000000000000
     -0.181818181818      0.181818181818      0.000000000000
     -0.090909090909      0.181818181818      0.000000000000
      0.000000000000      0.272727272727      0.000000000000
      0.090909090909      0.272727272727      0.000000000000
      0.181818181818      0.272727272727      0.000000000000
      0.272727272727      0.272727272727      0.000000000000
      0.363636363636      0.272727272727      0.000000000000
      0.454545454545      0.272727272727      0.000000000000
     -0.454545454545      0.272727272727      0.000000000000
     -0.363636363636      0.272727272727      0.000000000000
     -0.272727272727      0.272727272727      0.000000000000
     -0.181818181818      0.272727272727      0.000000000000
     -0.090909090909      0.272727272727      0.000000000000
      0.000000000000      0.363636363636      0.000000000000
      0.090909090909      0.363636363636      0.000000000000
      0.181818181818      0.363636363636      0.000000000000
      0.272727272727      0.363636363636      0.000000000000
      0.363636363636      0.363636363636      0.000000000000
      0.454545454545      0.363636363636      0.000000000000
     -0.454545454545      0.363636363636      0.000000000000
     -0.363636363636      0.363636363636      0.000000000000
     -0.272727272727      0.363636363636      0.000000000000
     -0.181818181818      0.363636363636      0.000000000000
     -0.090909090909      0.363636363636      0.000000000000
      0.000000000000      0.454545454545      0.000000000000
      0.090909090909      0.454545454545      0.000000000000
      0.181818181818      0.454545454545      0.000000000000
      0.272727272727      0.454545454545      0.000000000000
      0.363636363636      0.454545454545      0.000000000000
      0.454545454545      0.454545454545      0.000000000000
     -0.454545454545      0.454545454545      0.000000000000
     -0.363636363636      0.454545454545      0.000000000000
     -0.272727272727      0.454545454545      0.000000000000
     -0.181818181818      0.454545454545      0.000000000000
     -0.090909090909      0.454545454545      0.000000000000
      0.000000000000     -0.454545454545      0.000000000000
      0.090909090909     -0.454545454545      0.000000000000
      0.181818181818     -0.454545454545      0.000000000000
      0.272727272727     -0.454545454545      0.000000000000
      0.363636363636     -0.454545454545      0.000000000000
      0.454545454545     -0.454545454545      0.000000000000
     -0.454545454545     -0.454545454545      0.000000000000
     -0.363636363636     -0.454545454545      0.000000000000
     -0.272727272727     -0.454545454545      0.000000000000
     -0.181818181818     -0.454545454545      0.000000000000
     -0.090909090909     -0.454545454545      0.000000000000
      0.000000000000     -0.363636363636      0.000000000000
      0.090909090909     -0.363636363636      0.000000000000
      0.181818181818     -0.363636363636      0.000000000000
      0.272727272727     -0.363636363636      0.000000000000
      0.363636363636     -0.363636363636      0.000000000000
      0.454545454545     -0.363636363636      0.000000000000
     -0.454545454545     -0.363636363636      0.000000000000
     -0.363636363636     -0.363636363636      0.000000000000
     -0.272727272727     -0.363636363636      0.000000000000
     -0.181818181818     -0.363636363636      0.000000000000
     -0.090909090909     -0.363636363636      0.000000000000
      0.000000000000     -0.272727272727      0.000000000000
      0.090909090909     -0.272727272727      0.000000000000
      0.181818181818     -0.272727272727      0.000000000000
      0.272727272727     -0.272727272727      0.000000000000
      0.363636363636     -0.272727272727      0.000000000000
      0.454545454545     -0.272727272727      0.000000000000
     -0.454545454545     -0.272727272727      0.000000000000
     -0.363636363636     -0.272727272727      0.000000000000
     -0.272727272727     -0.272727272727      0.000000000000
     -0.181818181818     -0.272727272727      0.000000000000
     -0.090909090909     -0.272727272727      0.000000000000
      0.000000000000     -0.181818181818      0.000000000000
      0.090909090909     -0.181818181818      0.000000000000
      0.181818181818     -0.181818181818      0.000000000000
      0.272727272727     -0.181818181818      0.000000000000
      0.363636363636     -0.181818181818      0.000000000000
      0.454545454545     -0.181818181818      0.000000000000
     -0.454545454545     -0.181818181818      0.000000000000
     -0.363636363636     -0.181818181818      0.000000000000
     -0.272727272727     -0.181818181818      0.000000000000
     -0.181818181818     -0.181818181818      0.000000000000
     -0.090909090909     -0.181818181818      0.000000000000
      0.000000000000     -0.090909090909      0.000000000000
      0.090909090909     -0.090909090909      0.000000000000
      0.181818181818     -0.090909090909      0.000000000000
      0.272727272727     -0.090909090909      0.000000000000
      0.363636363636     -0.090909090909      0.000000000000
      0.454545454545     -0.090909090909      0.000000000000
     -0.454545454545     -0.090909090909      0.000000000000
     -0.363636363636     -0.090909090909      0.000000000000
     -0.272727272727     -0.090909090909      0.000000000000
     -0.181818181818     -0.090909090909      0.000000000000
     -0.090909090909     -0.090909090909      0.000000000000
      0.000000000000      0.000000000000      0.090909090909
      0.090909090909      0.000000000000      0.090909090909
      0.181818181818      0.000000000000      0.090909090909
      0.272727272727      0.000000000000      0.090909090909
      0.363636363636      0.000000000000      0.090909090909
      0.454545454545      0.000000000000      0.090909090909
     -0.454545454545      0.000000000000      0.090909090909
     -0.363636363636      0.000000000000      0.090909090909
     -0.272727272727      0.000000000000      0.090909090909
     -0.181818181818      0.000000000000      0.090909090909
     -0.090909090909      0.000000000000      0.090909090909
      0.000000000000      0.090909090909      0.090909090909
      0.090909090909      0.090909090909      0.090909090909
      0.181818181818      0.090909090909      0.090909090909
      0.272727272727      0.090909090909      0.090909090909
      0.363636363636      0.090909090909      0.090909090909
      0.454545454545      0.090909090909      0.090909090909
     -0.454545454545      0.090909090909      0.090909090909
     -0.363636363636      0.090909090909      0.090909090909
     -0.272727272727      0.090909090909      0.090909090909
     -0.181818181818      0.090909090909      0.090909090909
     -0.090909090909      0.090909090909      0.090909090909
      0.000000000000      0.181818181818      0.090909090909
      0.090909090909      0.181818181818      0.090909090909
      0.181818181818      0.181818181818      0.090909090909
      0.272727272727      0.181818181818      0.090909090909
      0.363636363636      0.181818181818      0.090909090909
      0.454545454545      0.181818181818      0.090909090909
     -0.454545454545      0.181818181818      0.090909090909
     -0.363636363636      0.181818181818      0.090909090909
     -0.272727272727      0.181818181818      0.090909090909
     -0.181818181818      0.181818181818      0.090909090909
     -0.090909090909      0.181818181818      0.090909090909
      0.000000000000      0.272727272727      0.090909090909
      0.090909090909      0.272727272727      0.090909090909
      0.181818181818      0.272727272727      0.090909090909
      0.272727272727      0.272727272727      0.090909090909
      0.363636363636      0.272727272727      0.090909090909
      0.454545454545      0.272727272727      0.090909090909
     -0.454545454545      0.272727272727      0.090909090909
     -0.363636363636      0.272727272727      0.090909090909
     -0.272727272727      0.272727272727      0.090909090909
     -0.181818181818      0.272727272727      0.090909090909
     -0.090909090909      0.272727272727      0.090909090909
      0.000000000000      0.363636363636      0.090909090909
      0.090909090909      0.363636363636      0.090909090909
      0.181818181818      0.363636363636      0.090909090909
      0.272727272727      0.363636363636      0.090909090909
      0.363636363636      0.363636363636      0.090909090909
      0.454545454545      0.363636363636      0.090909090909
     -0.454545454545      0.363636363636      0.090909090909
     -0.363636363636      0.363636363636      0.090909090909
     -0.272727272727      0.363636363636      0.090909090909
     -0.181818181818      0.363636363636      0.090909090909
     -0.090909090909      0.363636363636      0.090909090909
      0.000000000000      0.454545454545      0.090909090909
      0.090909090909      0.454545454545      0.090909090909
      0.181818181818      0.454545454545      0.090909090909
      0.272727272727      0.454545454545      0.090909090909
      0.363636363636      0.454545454545      0.090909090909
      0.454545454545      0.454545454545      0.090909090909
     -0.454545454545      0.454545454545      0.090909090909
     -0.363636363636      0.454545454545      0.090909090909
     -0.272727272727      0.454545454545      0.090909090909
     -0.181818181818      0.454545454545      0.090909090909
     -0.090909090909      0.454545454545      0.090909090909
      0.000000000000     -0.454545454545      0.090909090909
      0.090909090909     -0.454545454545      0.090909090909
      0.181818181818     -0.454545454545      0.090909090909
      0.272727272727     -0.454545454545      0.090909090909
      0.363636363636     -0.454545454545      0.090909090909
      0.454545454545     -0.454545454545      0.090909090909
     -0.454545454545     -0.454545454545      0.090909090909
     -0.363636363636     -0.454545454545      0.090909090909
     -0.272727272727     -0.454545454545      0.090909090909
     -0.181818181818     -0.454545454545      0.090909090909
     -0.090909090909     -0.454545454545      0.090909090909
      0.000000000000     -0.363636363636      0.090909090909
      0.090909090909     -0.363636363636      0.090909090909
      0.181818181818     -0.363636363636      0.090909090909
      0.272727272727     -0.363636363636      0.090909090909
      0.363636363636     -0.363636363636      0.090909090909
      0.454545454545     -0.363636363636      0.090909090909
     -0.454545454545     -0.363636363636      0.090909090909
     -0.363636363636     -0.363636363636      0.090909090909
     -0.272727272727     -0.363636363636      0.090909090909
     -0.181818181818     -0.363636363636      0.090909090909
     -0.090909090909     -0.363636363636      0.090909090909
      0.000000000000     -0.272727272727      0.090909090909
      0.090909090909     -0.272727272727      0.090909090909
      0.181818181818     -0.272727272727      0.090909090909
      0.272727272727     -0.272727272727      0.090909090909
      0.363636363636     -0.272727272727      0.090909090909
      0.454545454545     -0.272727272727      0.090909090909
     -0.454545454545     -0.272727272727      0.090909090909
     -0.363636363636     -0.272727272727      0.090909090909
     -0.272727272727     -0.272727272727      0.090909090909
     -0.181818181818     -0.272727272727      0.090909090909
     -0.090909090909     -0.272727272727      0.090909090909
      0.000000000000     -0.181818181818      0.090909090909
      0.090909090909     -0.181818181818      0.090909090909
      0.181818181818     -0.181818181818      0.090909090909
      0.272727272727     -0.181818181818      0.090909090909
      0.363636363636     -0.181818181818      0.090909090909
      0.454545454545     -0.181818181818      0.090909090909
     -0.454545454545     -0.181818181818      0.090909090909
     -0.363636363636     -0.181818181818      0.090909090909
     -0.272727272727     -0.181818181818      0.090909090909
     -0.181818181818     -0.181818181818      0.090909090909
     -0.090909090909     -0.181818181818      0.090909090909
      0.000000000000     -0.090909090909      0.090909090909
      0.090909090909     -0.090909090909      0.090909090909
      0.181818181818     -0.090909090909      0.090909090909
      0.272727272727     -0.090909090909      0.090909090909
      0.363636363636     -0.090909090909      0.090909090909
      0.454545454545     -0.090909090909      0.090909090909
     -0.454545454545     -0.090909090909      0.090909090909
     -0.363636363636     -0.090909090909      0.090909090909
     -0.272727272727     -0.090909090909      0.090909090909
     -0.181818181818     -0.090909090909      0.090909090909
     -0.090909090909     -0.090909090909      0.090909090909
      0.000000000000      0.000000000000      0.181818181818
      0.090909090909      0.000000000000      0.181818181818
      0.181818181818      0.000000000000      0.181818181818
      0.272727272727      0.000000000000      0.181818181818
      0.363636363636      0.000000000000      0.181818181818
      0.454545454545      0.000000000000      0.181818181818
     -0.454545454545      0.000000000000      0.181818181818
     -0.363636363636      0.000000000000      0.181818181818
     -0.272727272727      0.000000000000      0.181818181818
     -0.181818181818      0.000000000000      0.181818181818
     -0.090909090909      0.000000000000      0.181818181818
      0.000000000000      0.090909090909      0.181818181818
      0.090909090909      0.090909090909      0.181818181818
      0.181818181818      0.090909090909      0.181818181818
      0.272727272727      0.090909090909      0.181818181818
      0.363636363636      0.090909090909      0.181818181818
      0.454545454545      0.090909090909      0.181818181818
     -0.454545454545      0.090909090909      0.181818181818
     -0.363636363636      0.090909090909      0.181818181818
     -0.272727272727      0.090909090909      0.181818181818
     -0.181818181818      0.090909090909      0.181818181818
     -0.090909090909      0.090909090909      0.181818181818
      0.000000000000      0.181818181818      0.181818181818
      0.090909090909      0.181818181818      0.181818181818
      0.181818181818      0.181818181818      0.181818181818
      0.272727272727      0.181818181818      0.181818181818
      0.363636363636      0.181818181818      0.181818181818
      0.454545454545      0.181818181818      0.181818181818
     -0.454545454545      0.181818181818      0.181818181818
     -0.363636363636      0.181818181818      0.181818181818
     -0.272727272727      0.181818181818      0.181818181818
     -0.181818181818      0.181818181818      0.181818181818
     -0.090909090909      0.181818181818      0.181818181818
      0.000000000000      0.272727272727      0.181818181818
      0.090909090909      0.272727272727      0.181818181818
      0.181818181818      0.272727272727      0.181818181818
      0.272727272727      0.272727272727      0.181818181818
      0.363636363636      0.272727272727      0.181818181818
      0.454545454545      0.272727272727      0.181818181818
     -0.454545454545      0.272727272727      0.181818181818
     -0.363636363636      0.272727272727      0.181818181818
     -0.272727272727      0.272727272727      0.181818181818
     -0.181818181818      0.272727272727      0.181818181818
     -0.090909090909      0.272727272727      0.181818181818
      0.000000000000      0.363636363636      0.181818181818
      0.090909090909      0.363636363636      0.181818181818
      0.181818181818      0.363636363636      0.181818181818
      0.272727272727      0.363636363636      0.181818181818
      0.363636363636      0.363636363636      0.181818181818
      0.454545454545      0.363636363636      0.181818181818
     -0.454545454545      0.363636363636      0.181818181818
     -0.363636363636      0.363636363636      0.181818181818
     -0.272727272727      0.363636363636      0.181818181818
     -0.181818181818      0.363636363636      0.181818181818
     -0.090909090909      0.363636363636      0.181818181818
      0.000000000000      0.454545454545      0.181818181818
      0.090909090909      0.454545454545      0.181818181818
      0.181818181818      0.454545454545      0.181818181818
      0.272727272727      0.454545454545      0.181818181818
      0.363636363636      0.454545454545      0.181818181818
      0.454545454545      0.454545454545      0.181818181818
     -0.454545454545      0.454545454545      0.181818181818
     -0.363636363636      0.454545454545      0.181818181818
     -0.272727272727      0.454545454545      0.181818181818
     -0.181818181818      0.454545454545      0.181818181818
     -0.090909090909      0.454545454545      0.181818181818
      0.000000000000     -0.454545454545      0.181818181818
      0.090909090909     -0.454545454545      0.181818181818
      0.181818181818     -0.454545454545      0.181818181818
      0.272727272727     -0.454545454545      0.181818181818
      0.363636363636     -0.454545454545      0.181818181818
      0.454545454545     -0.454545454545      0.181818181818
     -0.454545454545     -0.454545454545      0.181818181818
     -0.363636363636     -0.454545454545      0.181818181818
     -0.272727272727     -0.454545454545      0.181818181818
     -0.181818181818     -0.454545454545      0.181818181818
     -0.090909090909     -0.454545454545      0.181818181818
      0.000000000000     -0.363636363636      0.181818181818
      0.090909090909     -0.363636363636      0.181818181818
      0.181818181818     -0.363636363636      0.181818181818
      0.272727272727     -0.363636363636      0.181818181818
      0.363636363636     -0.363636363636      0.181818181818
      0.454545454545     -0.363636363636      0.181818181818
     -0.454545454545     -0.363636363636      0.181818181818
     -0.363636363636     -0.363636363636      0.181818181818
     -0.272727272727     -0.363636363636      0.181818181818
     -0.181818181818     -0.363636363636      0.181818181818
     -0.090909090909     -0.363636363636      0.181818181818
      0.000000000000     -0.272727272727      0.181818181818
      0.090909090909     -0.272727272727      0.181818181818
      0.181818181818     -0.272727272727      0.181818181818
      0.272727272727     -0.272727272727      0.181818181818
      0.363636363636     -0.272727272727      0.181818181818
      0.454545454545     -0.272727272727      0.181818181818
     -0.454545454545     -0.272727272727      0.181818181818
     -0.363636363636     -0.272727272727      0.181818181818
     -0.272727272727     -0.272727272727      0.181818181818
     -0.181818181818     -0.272727272727      0.181818181818
     -0.090909090909     -0.272727272727      0.181818181818
      0.000000000000     -0.181818181818      0.181818181818
      0.090909090909     -0.181818181818      0.181818181818
      0.181818181818     -0.181818181818      0.181818181818
      0.272727272727     -0.181818181818      0.181818181818
      0.363636363636     -0.181818181818      0.181818181818
      0.454545454545     -0.181818181818      0.181818181818
     -0.454545454545     -0.181818181818      0.181818181818
     -0.363636363636     -0.181818181818      0.181818181818
     -0.272727272727     -0.181818181818      0.181818181818
     -0.181818181818     -0.181818181818      0.181818181818
     -0.090909090909     -0.181818181818      0.181818181818
      0.000000000000     -0.090909090909      0.181818181818
      0.090909090909     -0.090909090909      0.181818181818
      0.181818181818     -0.090909090909      0.181818181818
      0.272727272727     -0.090909090909      0.181818181818
      0.363636363636     -0.090909090909      0.181818181818
      0.454545454545     -0.090909090909      0.181818181818
     -0.454545454545     -0.090909090909      0.181818181818
     -0.363636363636     -0.090909090909      0.181818181818
     -0.272727272727     -0.090909090909      0.181818181818
     -0.181818181818     -0.090909090909      0.181818181818
     -0.090909090909     -0.090909090909      0.181818181818
      0.000000000000      0.000000000000      0.272727272727
      0.090909090909      0.000000000000      0.272727272727
      0.181818181818      0.000000000000      0.272727272727
      0.272727272727      0.000000000000      0.272727272727
      0.363636363636      0.000000000000      0.272727272727
      0.454545454545      0.000000000000      0.272727272727
     -0.454545454545      0.000000000000      0.272727272727
     -0.363636363636      0.000000000000      0.272727272727
     -0.272727272727      0.000000000000      0.272727272727
     -0.181818181818      0.000000000000      0.272727272727
     -0.090909090909      0.000000000000      0.272727272727
      0.000000000000      0.090909090909      0.272727272727
      0.090909090909      0.090909090909      0.272727272727
      0.181818181818      0.090909090909      0.272727272727
      0.272727272727      0.090909090909      0.272727272727
      0.363636363636      0.090909090909      0.272727272727
      0.454545454545      0.090909090909      0.272727272727
     -0.454545454545      0.090909090909      0.272727272727
     -0.363636363636      0.090909090909      0.272727272727
     -0.272727272727      0.090909090909      0.272727272727
     -0.181818181818      0.090909090909      0.272727272727
     -0.090909090909      0.090909090909      0.272727272727
      0.000000000000      0.181818181818      0.272727272727
      0.090909090909      0.181818181818      0.272727272727
      0.181818181818      0.181818181818      0.272727272727
      0.272727272727      0.181818181818      0.272727272727
      0.363636363636      0.181818181818      0.272727272727
      0.454545454545      0.181818181818      0.272727272727
     -0.454545454545      0.181818181818      0.272727272727
     -0.363636363636      0.181818181818      0.272727272727
     -0.272727272727      0.181818181818      0.272727272727
     -0.181818181818      0.181818181818      0.272727272727
     -0.090909090909      0.181818181818      0.272727272727
      0.000000000000      0.272727272727      0.272727272727
      0.090909090909      0.272727272727      0.272727272727
      0.181818181818      0.272727272727      0.272727272727
      0.272727272727      0.272727272727      0.272727272727
      0.363636363636      0.272727272727      0.272727272727
      0.454545454545      0.272727272727      0.272727272727
     -0.454545454545      0.272727272727      0.272727272727
     -0.363636363636      0.272727272727      0.272727272727
     -0.272727272727      0.272727272727      0.272727272727
     -0.181818181818      0.272727272727      0.272727272727
     -0.090909090909      0.272727272727      0.272727272727
      0.000000000000      0.363636363636      0.272727272727
      0.090909090909      0.363636363636      0.272727272727
      0.181818181818      0.363636363636      0.272727272727
      0.272727272727      0.363636363636      0.272727272727
      0.363636363636      0.363636363636      0.272727272727
      0.454545454545      0.363636363636      0.272727272727
     -0.454545454545      0.363636363636      0.272727272727
     -0.363636363636      0.363636363636      0.272727272727
     -0.272727272727      0.363636363636      0.272727272727
     -0.181818181818      0.363636363636      0.272727272727
     -0.090909090909      0.363636363636      0.272727272727
      0.000000000000      0.454545454545      0.272727272727
      0.090909090909      0.454545454545      0.272727272727
      0.181818181818      0.454545454545      0.272727272727
      0.272727272727      0.454545454545      0.272727272727
      0.363636363636      0.454545454545      0.272727272727
      0.454545454545      0.454545454545      0.272727272727
     -0.454545454545      0.454545454545      0.272727272727
     -0.363636363636      0.454545454545      0.272727272727
     -0.272727272727      0.454545454545      0.272727272727
     -0.181818181818      0.454545454545      0.272727272727
     -0.090909090909      0.454545454545      0.272727272727
      0.000000000000     -0.454545454545      0.272727272727
      0.090909090909     -0.454545454545      0.272727272727
      0.181818181818     -0.454545454545      0.272727272727
      0.272727272727     -0.454545454545      0.272727272727
      0.363636363636     -0.454545454545      0.272727272727
      0.454545454545     -0.454545454545      0.272727272727
     -0.454545454545     -0.454545454545      0.272727272727
     -0.363636363636     -0.454545454545      0.272727272727
     -0.272727272727     -0.454545454545      0.272727272727
     -0.181818181818     -0.454545454545      0.272727272727
     -0.090909090909     -0.454545454545      0.272727272727
      0.000000000000     -0.363636363636      0.272727272727
      0.090909090909     -0.363636363636      0.272727272727
      0.181818181818     -0.363636363636      0.272727272727
      0.272727272727     -0.363636363636      0.272727272727
      0.363636363636     -0.363636363636      0.272727272727
      0.454545454545     -0.363636363636      0.272727272727
     -0.454545454545     -0.363636363636      0.272727272727
     -0.363636363636     -0.363636363636      0.272727272727
     -0.272727272727     -0.363636363636      0.272727272727
     -0.181818181818     -0.363636363636      0.272727272727
     -0.090909090909     -0.363636363636      0.272727272727
      0.000000000000     -0.272727272727      0.272727272727
      0.090909090909     -0.272727272727      0.272727272727
      0.181818181818     -0.272727272727      0.272727272727
      0.272727272727     -0.272727272727      0.272727272727
      0.363636363636     -0.272727272727      0.272727272727
      0.454545454545     -0.272727272727      0.272727272727
     -0.454545454545     -0.272727272727      0.272727272727
     -0.363636363636     -0.272727272727      0.272727272727
     -0.272727272727     -0.272727272727      0.272727272727
     -0.181818181818     -0.272727272727      0.272727272727
     -0.090909090909     -0.272727272727      0.272727272727
      0.000000000000     -0.181818181818      0.272727272727
      0.090909090909     -0.181818181818      0.272727272727
      0.181818181818     -0.181818181818      0.272727272727
      0.272727272727     -0.181818181818      0.272727272727
      0.363636363636     -0.181818181818      0.272727272727
      0.454545454545     -0.181818181818      0.272727272727
     -0.454545454545     -0.181818181818      0.272727272727
     -0.363636363636     -0.181818181818      0.272727272727
     -0.272727272727     -0.181818181818      0.272727272727
     -0.181818181818     -0.181818181818      0.272727272727