num_bands =    48  ! set to NBANDS by VASP
num_wann =    24  ! set to NBANDS by VASP
dis_win_min       =  0.0d0
dis_win_max       = 21.0d0
dis_froz_min      =  0.0d0
dis_froz_max      =  12.3d0
dis_num_iter      =  1000
num_iter      =  000
num_print_cycles = 100
dis_mix_ratio = 1.0
hr_plot =.true.
!restart = wannierise 

!guiding_centres = .true.
!fixed_centres = .true.
!lambda_c = 100.0
!
begin projections
Zr: s; p; d 
Te: p 
end projections

spinors = .true.

begin unit_cell_cart
     3.7994266     0.0000000     0.0000000
    -1.8997133     3.2903999     0.0000000
     0.0000000     0.0000000     3.8985691
end unit_cell_cart

begin atoms_cart
Zr       0.0000000     0.0000000     0.0000000
Te      -0.0000019     2.1936010     1.9492846
end atoms_cart

mp_grid =     9     9     8

begin kpoints
      0.000000000000      0.000000000000      0.000000000000
      0.111111111111      0.000000000000      0.000000000000
      0.222222222222      0.000000000000      0.000000000000
      0.333333333333      0.000000000000      0.000000000000
      0.444444444444      0.000000000000      0.000000000000
     -0.444444444444      0.000000000000      0.000000000000
     -0.333333333333      0.000000000000      0.000000000000
     -0.222222222222      0.000000000000      0.000000000000
     -0.111111111111      0.000000000000      0.000000000000
      0.000000000000      0.111111111111      0.000000000000
      0.111111111111      0.111111111111      0.000000000000
      0.222222222222      0.111111111111      0.000000000000
      0.333333333333      0.111111111111      0.000000000000
      0.444444444444      0.111111111111      0.000000000000
     -0.444444444444      0.111111111111      0.000000000000
     -0.333333333333      0.111111111111      0.000000000000
     -0.222222222222      0.111111111111      0.000000000000
     -0.111111111111      0.111111111111      0.000000000000
      0.000000000000      0.222222222222      0.000000000000
      0.111111111111      0.222222222222      0.000000000000
      0.222222222222      0.222222222222      0.000000000000
      0.333333333333      0.222222222222      0.000000000000
      0.444444444444      0.222222222222      0.000000000000
     -0.444444444444      0.222222222222      0.000000000000
     -0.333333333333      0.222222222222      0.000000000000
     -0.222222222222      0.222222222222      0.000000000000
     -0.111111111111      0.222222222222      0.000000000000
      0.000000000000      0.333333333333      0.000000000000
      0.111111111111      0.333333333333      0.000000000000
      0.222222222222      0.333333333333      0.000000000000
      0.333333333333      0.333333333333      0.000000000000
      0.444444444444      0.333333333333      0.000000000000
     -0.444444444444      0.333333333333      0.000000000000
     -0.333333333333      0.333333333333      0.000000000000
     -0.222222222222      0.333333333333      0.000000000000
     -0.111111111111      0.333333333333      0.000000000000
      0.000000000000      0.444444444444      0.000000000000
      0.111111111111      0.444444444444      0.000000000000
      0.222222222222      0.444444444444      0.000000000000
      0.333333333333      0.444444444444      0.000000000000
      0.444444444444      0.444444444444      0.000000000000
     -0.444444444444      0.444444444444      0.000000000000
     -0.333333333333      0.444444444444      0.000000000000
     -0.222222222222      0.444444444444      0.000000000000
     -0.111111111111      0.444444444444      0.000000000000
      0.000000000000     -0.444444444444      0.000000000000
      0.111111111111     -0.444444444444      0.000000000000
      0.222222222222     -0.444444444444      0.000000000000
      0.333333333333     -0.444444444444      0.000000000000
      0.444444444444     -0.444444444444      0.000000000000
     -0.444444444444     -0.444444444444      0.000000000000
     -0.333333333333     -0.444444444444      0.000000000000
     -0.222222222222     -0.444444444444      0.000000000000
     -0.111111111111     -0.444444444444      0.000000000000
      0.000000000000     -0.333333333333      0.000000000000
      0.111111111111     -0.333333333333      0.000000000000
      0.222222222222     -0.333333333333      0.000000000000
      0.333333333333     -0.333333333333      0.000000000000
      0.444444444444     -0.333333333333      0.000000000000
     -0.444444444444     -0.333333333333      0.000000000000
     -0.333333333333     -0.333333333333      0.000000000000
     -0.222222222222     -0.333333333333      0.000000000000
     -0.111111111111     -0.333333333333      0.000000000000
      0.000000000000     -0.222222222222      0.000000000000
      0.111111111111     -0.222222222222      0.000000000000
      0.222222222222     -0.222222222222      0.000000000000
      0.333333333333     -0.222222222222      0.000000000000
      0.444444444444     -0.222222222222      0.000000000000
     -0.444444444444     -0.222222222222      0.000000000000
     -0.333333333333     -0.222222222222      0.000000000000
     -0.222222222222     -0.222222222222      0.000000000000
     -0.111111111111     -0.222222222222      0.000000000000
      0.000000000000     -0.111111111111      0.000000000000
      0.111111111111     -0.111111111111      0.000000000000
      0.222222222222     -0.111111111111      0.000000000000
      0.333333333333     -0.111111111111      0.000000000000
      0.444444444444     -0.111111111111      0.000000000000
     -0.444444444444     -0.111111111111      0.000000000000
     -0.333333333333     -0.111111111111      0.000000000000
     -0.222222222222     -0.111111111111      0.000000000000
     -0.111111111111     -0.111111111111      0.000000000000
      0.000000000000      0.000000000000      0.125000000000
      0.111111111111      0.000000000000      0.125000000000
      0.222222222222      0.000000000000      0.125000000000
      0.333333333333      0.000000000000      0.125000000000
      0.444444444444      0.000000000000      0.125000000000
     -0.444444444444      0.000000000000      0.125000000000
     -0.333333333333      0.000000000000      0.125000000000
     -0.222222222222      0.000000000000      0.125000000000
     -0.111111111111      0.000000000000      0.125000000000
      0.000000000000      0.111111111111      0.125000000000
      0.111111111111      0.111111111111      0.125000000000
      0.222222222222      0.111111111111      0.125000000000
      0.333333333333      0.111111111111      0.125000000000
      0.444444444444      0.111111111111      0.125000000000
     -0.444444444444      0.111111111111      0.125000000000
     -0.333333333333      0.111111111111      0.125000000000
     -0.222222222222      0.111111111111      0.125000000000
     -0.111111111111      0.111111111111      0.125000000000
      0.000000000000      0.222222222222      0.125000000000
      0.111111111111      0.222222222222      0.125000000000
      0.222222222222      0.222222222222      0.125000000000
      0.333333333333      0.222222222222      0.125000000000
      0.444444444444      0.222222222222      0.125000000000
     -0.444444444444      0.222222222222      0.125000000000
     -0.333333333333      0.222222222222      0.125000000000
     -0.222222222222      0.222222222222      0.125000000000
     -0.111111111111      0.222222222222      0.125000000000
      0.000000000000      0.333333333333      0.125000000000
      0.111111111111      0.333333333333      0.125000000000
      0.222222222222      0.333333333333      0.125000000000
      0.333333333333      0.333333333333      0.125000000000
      0.444444444444      0.333333333333      0.125000000000
     -0.444444444444      0.333333333333      0.125000000000
     -0.333333333333      0.333333333333      0.125000000000
     -0.222222222222      0.333333333333      0.125000000000
     -0.111111111111      0.333333333333      0.125000000000
      0.000000000000      0.444444444444      0.125000000000
      0.111111111111      0.444444444444      0.125000000000
      0.222222222222      0.444444444444      0.125000000000
      0.333333333333      0.444444444444      0.125000000000
      0.444444444444      0.444444444444      0.125000000000
     -0.444444444444      0.444444444444      0.125000000000
     -0.333333333333      0.444444444444      0.125000000000
     -0.222222222222      0.444444444444      0.125000000000
     -0.111111111111      0.444444444444      0.125000000000
      0.000000000000     -0.444444444444      0.125000000000
      0.111111111111     -0.444444444444      0.125000000000
      0.222222222222     -0.444444444444      0.125000000000
      0.333333333333     -0.444444444444      0.125000000000
      0.444444444444     -0.444444444444      0.125000000000
     -0.444444444444     -0.444444444444      0.125000000000
     -0.333333333333     -0.444444444444      0.125000000000
     -0.222222222222     -0.444444444444      0.125000000000
     -0.111111111111     -0.444444444444      0.125000000000
      0.000000000000     -0.333333333333      0.125000000000
      0.111111111111     -0.333333333333      0.125000000000
      0.222222222222     -0.333333333333      0.125000000000
      0.333333333333     -0.333333333333      0.125000000000
      0.444444444444     -0.333333333333      0.125000000000
     -0.444444444444     -0.333333333333      0.125000000000
     -0.333333333333     -0.333333333333      0.125000000000
     -0.222222222222     -0.333333333333      0.125000000000
     -0.111111111111     -0.333333333333      0.125000000000
      0.000000000000     -0.222222222222      0.125000000000
      0.111111111111     -0.222222222222      0.125000000000
      0.222222222222     -0.222222222222      0.125000000000
      0.333333333333     -0.222222222222      0.125000000000
      0.444444444444     -0.222222222222      0.125000000000
     -0.444444444444     -0.222222222222      0.125000000000
     -0.333333333333     -0.222222222222      0.125000000000
     -0.222222222222     -0.222222222222      0.125000000000
     -0.111111111111     -0.222222222222      0.125000000000
      0.000000000000     -0.111111111111      0.125000000000
      0.111111111111     -0.111111111111      0.125000000000
      0.222222222222     -0.111111111111      0.125000000000
      0.333333333333     -0.111111111111      0.125000000000
      0.444444444444     -0.111111111111      0.125000000000
     -0.444444444444     -0.111111111111      0.125000000000
     -0.333333333333     -0.111111111111      0.125000000000
     -0.222222222222     -0.111111111111      0.125000000000
     -0.111111111111     -0.111111111111      0.125000000000
      0.000000000000      0.000000000000      0.250000000000
      0.111111111111      0.000000000000      0.250000000000
      0.222222222222      0.000000000000      0.250000000000
      0.333333333333      0.000000000000      0.250000000000
      0.444444444444      0.000000000000      0.250000000000
     -0.444444444444      0.000000000000      0.250000000000
     -0.333333333333      0.000000000000      0.250000000000
     -0.222222222222      0.000000000000      0.250000000000
     -0.111111111111      0.000000000000      0.250000000000
      0.000000000000      0.111111111111      0.250000000000
      0.111111111111      0.111111111111      0.250000000000
      0.222222222222      0.111111111111      0.250000000000
      0.333333333333      0.111111111111      0.250000000000
      0.444444444444      0.111111111111      0.250000000000
     -0.444444444444      0.111111111111      0.250000000000
     -0.333333333333      0.111111111111      0.250000000000
     -0.222222222222      0.111111111111      0.250000000000
     -0.111111111111      0.111111111111      0.250000000000
      0.000000000000      0.222222222222      0.250000000000
      0.111111111111      0.222222222222      0.250000000000
      0.222222222222      0.222222222222      0.250000000000
      0.333333333333      0.222222222222      0.250000000000
      0.444444444444      0.222222222222      0.250000000000
     -0.444444444444      0.222222222222      0.250000000000
     -0.333333333333      0.222222222222      0.250000000000
     -0.222222222222      0.222222222222      0.250000000000
     -0.111111111111      0.222222222222      0.250000000000
      0.000000000000      0.333333333333      0.250000000000
      0.111111111111      0.333333333333      0.250000000000
      0.222222222222      0.333333333333      0.250000000000
      0.333333333333      0.333333333333      0.250000000000
      0.444444444444      0.333333333333      0.250000000000
     -0.444444444444      0.333333333333      0.250000000000
     -0.333333333333      0.333333333333      0.250000000000
     -0.222222222222      0.333333333333      0.250000000000
     -0.111111111111      0.333333333333      0.250000000000
      0.000000000000      0.444444444444      0.250000000000
      0.111111111111      0.444444444444      0.250000000000
      0.222222222222      0.444444444444      0.250000000000
      0.333333333333      0.444444444444      0.250000000000
      0.444444444444      0.444444444444      0.250000000000
     -0.444444444444      0.444444444444      0.250000000000
     -0.333333333333      0.444444444444      0.250000000000
     -0.222222222222      0.444444444444      0.250000000000
     -0.111111111111      0.444444444444      0.250000000000
      0.000000000000     -0.444444444444      0.250000000000
      0.111111111111     -0.444444444444      0.250000000000
      0.222222222222     -0.444444444444      0.250000000000
      0.333333333333     -0.444444444444      0.250000000000
      0.444444444444     -0.444444444444      0.250000000000
     -0.444444444444     -0.444444444444      0.250000000000
     -0.333333333333     -0.444444444444      0.250000000000
     -0.222222222222     -0.444444444444      0.250000000000
     -0.111111111111     -0.444444444444      0.250000000000
      0.000000000000     -0.333333333333      0.250000000000
      0.111111111111     -0.333333333333      0.250000000000
      0.222222222222     -0.333333333333      0.250000000000
      0.333333333333     -0.333333333333      0.250000000000
      0.444444444444     -0.333333333333      0.250000000000
     -0.444444444444     -0.333333333333      0.250000000000
     -0.333333333333     -0.333333333333      0.250000000000
     -0.222222222222     -0.333333333333      0.250000000000
     -0.111111111111     -0.333333333333      0.250000000000
      0.000000000000     -0.222222222222      0.250000000000
      0.111111111111     -0.222222222222      0.250000000000
      0.222222222222     -0.222222222222      0.250000000000
      0.333333333333     -0.222222222222      0.250000000000
      0.444444444444     -0.222222222222      0.250000000000
     -0.444444444444     -0.222222222222      0.250000000000
     -0.333333333333     -0.222222222222      0.250000000000
     -0.222222222222     -0.222222222222      0.250000000000
     -0.111111111111     -0.222222222222      0.250000000000
      0.000000000000     -0.111111111111      0.250000000000
      0.111111111111     -0.111111111111      0.250000000000
      0.222222222222     -0.111111111111      0.250000000000
      0.333333333333     -0.111111111111      0.250000000000
      0.444444444444     -0.111111111111      0.250000000000
     -0.444444444444     -0.111111111111      0.250000000000
     -0.333333333333     -0.111111111111      0.250000000000
     -0.222222222222     -0.111111111111      0.250000000000
     -0.111111111111     -0.111111111111      0.250000000000
      0.000000000000      0.000000000000      0.375000000000
      0.111111111111      0.000000000000      0.375000000000
      0.222222222222      0.000000000000      0.375000000000
      0.333333333333      0.000000000000      0.375000000000
      0.444444444444      0.000000000000      0.375000000000
     -0.444444444444      0.000000000000      0.375000000000
     -0.333333333333      0.000000000000      0.375000000000
     -0.222222222222      0.000000000000      0.375000000000
     -0.111111111111      0.000000000000      0.375000000000
      0.000000000000      0.111111111111      0.375000000000
      0.111111111111      0.111111111111      0.375000000000
      0.222222222222      0.111111111111      0.375000000000
      0.333333333333      0.111111111111      0.375000000000
      0.444444444444      0.111111111111      0.375000000000
     -0.444444444444      0.111111111111      0.375000000000
     -0.333333333333      0.111111111111      0.375000000000
     -0.222222222222      0.111111111111      0.375000000000
     -0.111111111111      0.111111111111      0.375000000000
      0.000000000000      0.222222222222      0.375000000000
      0.111111111111      0.222222222222      0.375000000000
      0.222222222222      0.222222222222      0.375000000000
      0.333333333333      0.222222222222      0.375000000000
      0.444444444444      0.222222222222      0.375000000000
     -0.444444444444      0.222222222222      0.375000000000
     -0.333333333333      0.222222222222      0.375000000000
     -0.222222222222      0.222222222222      0.375000000000
     -0.111111111111      0.222222222222      0.375000000000
      0.000000000000      0.333333333333      0.375000000000
      0.111111111111      0.333333333333      0.375000000000
      0.222222222222      0.333333333333      0.375000000000
      0.333333333333      0.333333333333      0.375000000000
      0.444444444444      0.333333333333      0.375000000000
     -0.444444444444      0.333333333333      0.375000000000
     -0.333333333333      0.333333333333      0.375000000000
     -0.222222222222      0.333333333333      0.375000000000
     -0.111111111111      0.333333333333      0.375000000000
      0.000000000000      0.444444444444      0.375000000000
      0.111111111111      0.444444444444      0.375000000000
      0.222222222222      0.444444444444      0.375000000000
      0.333333333333      0.444444444444      0.375000000000
      0.444444444444      0.444444444444      0.375000000000
     -0.444444444444      0.444444444444      0.375000000000
     -0.333333333333      0.444444444444      0.375000000000
     -0.222222222222      0.444444444444      0.375000000000
     -0.111111111111      0.444444444444      0.375000000000
      0.000000000000     -0.444444444444      0.375000000000
      0.111111111111     -0.444444444444      0.375000000000
      0.222222222222     -0.444444444444      0.375000000000
      0.333333333333     -0.444444444444      0.375000000000
      0.444444444444     -0.444444444444      0.375000000000
     -0.444444444444     -0.444444444444      0.375000000000
     -0.333333333333     -0.444444444444      0.375000000000
     -0.222222222222     -0.444444444444      0.375000000000
     -0.111111111111     -0.444444444444      0.375000000000
      0.000000000000     -0.333333333333      0.375000000000
      0.111111111111     -0.333333333333      0.375000000000
      0.222222222222     -0.333333333333      0.375000000000
      0.333333333333     -0.333333333333      0.375000000000
      0.444444444444     -0.333333333333      0.375000000000
     -0.444444444444     -0.333333333333      0.375000000000
     -0.333333333333     -0.333333333333      0.375000000000
     -0.222222222222     -0.333333333333      0.375000000000
     -0.111111111111     -0.333333333333      0.375000000000
      0.000000000000     -0.222222222222      0.375000000000
      0.111111111111     -0.222222222222      0.375000000000
      0.222222222222     -0.222222222222      0.375000000000
      0.333333333333     -0.222222222222      0.375000000000
      0.444444444444     -0.222222222222      0.375000000000
     -0.444444444444     -0.222222222222      0.375000000000
     -0.333333333333     -0.222222222222      0.375000000000
     -0.222222222222     -0.222222222222      0.375000000000
     -0.111111111111     -0.222222222222      0.375000000000
      0.000000000000     -0.111111111111      0.375000000000
      0.111111111111     -0.111111111111      0.375000000000
      0.222222222222     -0.111111111111      0.375000000000
      0.333333333333     -0.111111111111      0.375000000000
      0.444444444444     -0.111111111111      0.375000000000
     -0.444444444444     -0.111111111111      0.375000000000
     -0.333333333333     -0.111111111111      0.375000000000
     -0.222222222222     -0.111111111111      0.375000000000
     -0.111111111111     -0.111111111111      0.375000000000
      0.000000000000      0.000000000000      0.500000000000
      0.111111111111      0.000000000000      0.500000000000
      0.222222222222      0.000000000000      0.500000000000
      0.333333333333      0.000000000000      0.500000000000
      0.444444444444      0.000000000000      0.500000000000
     -0.444444444444      0.000000000000      0.500000000000
     -0.333333333333      0.000000000000      0.500000000000
     -0.222222222222      0.000000000000      0.500000000000
     -0.111111111111      0.000000000000      0.500000000000
      0.000000000000      0.111111111111      0.500000000000
      0.111111111111      0.111111111111      0.500000000000
      0.222222222222      0.111111111111      0.500000000000
      0.333333333333      0.111111111111      0.500000000000
      0.444444444444      0.111111111111      0.500000000000
     -0.444444444444      0.111111111111      0.500000000000
     -0.333333333333      0.111111111111      0.500000000000
     -0.222222222222      0.111111111111      0.500000000000
     -0.111111111111      0.111111111111      0.500000000000
      0.000000000000      0.222222222222      0.500000000000
      0.111111111111      0.222222222222      0.500000000000
      0.222222222222      0.222222222222      0.500000000000
      0.333333333333      0.222222222222      0.500000000000
      0.444444444444      0.222222222222      0.500000000000
     -0.444444444444      0.222222222222      0.500000000000
     -0.333333333333      0.222222222222      0.500000000000
     -0.222222222222      0.222222222222      0.500000000000
     -0.111111111111      0.222222222222      0.500000000000
      0.000000000000      0.333333333333      0.500000000000
      0.111111111111      0.333333333333      0.500000000000
      0.222222222222      0.333333333333      0.500000000000
      0.333333333333      0.333333333333      0.500000000000
      0.444444444444      0.333333333333      0.500000000000
     -0.444444444444      0.333333333333      0.500000000000
     -0.333333333333      0.333333333333      0.500000000000
     -0.222222222222      0.333333333333      0.500000000000
     -0.111111111111      0.333333333333      0.500000000000
      0.000000000000      0.444444444444      0.500000000000
      0.111111111111      0.444444444444      0.500000000000
      0.222222222222      0.444444444444      0.500000000000
      0.333333333333      0.444444444444      0.500000000000
      0.444444444444      0.444444444444      0.500000000000
     -0.444444444444      0.444444444444      0.500000000000
     -0.333333333333      0.444444444444      0.500000000000
     -0.222222222222      0.444444444444      0.500000000000
     -0.111111111111      0.444444444444      0.500000000000
      0.000000000000     -0.444444444444      0.500000000000
      0.111111111111     -0.444444444444      0.500000000000
      0.222222222222     -0.444444444444      0.500000000000
      0.333333333333     -0.444444444444      0.500000000000
      0.444444444444     -0.444444444444      0.500000000000
     -0.444444444444     -0.444444444444      0.500000000000
     -0.333333333333     -0.444444444444      0.500000000000
     -0.222222222222     -0.444444444444      0.500000000000
     -0.111111111111     -0.444444444444      0.500000000000
      0.000000000000     -0.333333333333      0.500000000000
      0.111111111111     -0.333333333333      0.500000000000
      0.222222222222     -0.333333333333      0.500000000000
      0.333333333333     -0.333333333333      0.500000000000
      0.444444444444     -0.333333333333      0.500000000000
     -0.444444444444     -0.333333333333      0.500000000000
     -0.333333333333     -0.333333333333      0.500000000000
     -0.222222222222     -0.333333333333      0.500000000000
     -0.111111111111     -0.333333333333      0.500000000000
      0.000000000000     -0.222222222222      0.500000000000
      0.111111111111     -0.222222222222      0.500000000000
      0.222222222222     -0.222222222222      0.500000000000
      0.333333333333     -0.222222222222      0.500000000000
      0.444444444444     -0.222222222222      0.500000000000
     -0.444444444444     -0.222222222222      0.500000000000
     -0.333333333333     -0.222222222222      0.500000000000
     -0.222222222222     -0.222222222222      0.500000000000
     -0.111111111111     -0.222222222222      0.500000000000
      0.000000000000     -0.111111111111      0.500000000000
      0.111111111111     -0.111111111111      0.500000000000
      0.222222222222     -0.111111111111      0.500000000000
      0.333333333333     -0.111111111111      0.500000000000
      0.444444444444     -0.111111111111      0.500000000000
     -0.444444444444     -0.111111111111      0.500000000000
     -0.333333333333     -0.111111111111      0.500000000000
     -0.222222222222     -0.111111111111      0.500000000000
     -0.111111111111     -0.111111111111      0.500000000000
      0.000000000000      0.000000000000     -0.375000000000
      0.111111111111      0.000000000000     -0.375000000000
      0.222222222222      0.000000000000     -0.375000000000
      0.333333333333      0.000000000000     -0.375000000000
      0.444444444444      0.000000000000     -0.375000000000
     -0.444444444444      0.000000000000     -0.375000000000
     -0.333333333333      0.000000000000     -0.375000000000
     -0.222222222222      0.000000000000     -0.375000000000
     -0.111111111111      0.000000000000     -0.375000000000
      0.000000000000      0.111111111111     -0.375000000000
      0.111111111111      0.111111111111     -0.375000000000
      0.222222222222      0.111111111111     -0.375000000000
      0.333333333333      0.111111111111     -0.375000000000
      0.444444444444      0.111111111111     -0.375000000000
     -0.444444444444      0.111111111111     -0.375000000000
     -0.333333333333      0.111111111111     -0.375000000000
     -0.222222222222      0.111111111111     -0.375000000000
     -0.111111111111      0.111111111111     -0.375000000000
      0.000000000000      0.222222222222     -0.375000000000
      0.111111111111      0.222222222222     -0.375000000000
      0.222222222222      0.222222222222     -0.375000000000
      0.333333333333      0.222222222222     -0.375000000000
      0.444444444444      0.222222222222     -0.375000000000
     -0.444444444444      0.222222222222     -0.375000000000
     -0.333333333333      0.222222222222     -0.375000000000
     -0.222222222222      0.222222222222     -0.375000000000
     -0.111111111111      0.222222222222     -0.375000000000
      0.000000000000      0.333333333333     -0.375000000000
      0.111111111111      0.333333333333     -0.375000000000
      0.222222222222      0.333333333333     -0.375000000000
      0.333333333333      0.333333333333     -0.375000000000
      0.444444444444      0.333333333333     -0.375000000000
     -0.444444444444      0.333333333333     -0.375000000000
     -0.333333333333      0.333333333333     -0.375000000000
     -0.222222222222      0.333333333333     -0.375000000000
     -0.111111111111      0.333333333333     -0.375000000000
      0.000000000000      0.444444444444     -0.375000000000
      0.111111111111      0.444444444444     -0.375000000000
      0.222222222222      0.444444444444     -0.375000000000
      0.333333333333      0.444444444444     -0.375000000000
      0.444444444444      0.444444444444     -0.375000000000
     -0.444444444444      0.444444444444     -0.375000000000
     -0.333333333333      0.444444444444     -0.375000000000
     -0.222222222222      0.444444444444     -0.375000000000
     -0.111111111111      0.444444444444     -0.375000000000
      0.000000000000     -0.444444444444     -0.375000000000
      0.111111111111     -0.444444444444     -0.375000000000
      0.222222222222     -0.444444444444     -0.375000000000
      0.333333333333     -0.444444444444     -0.375000000000
      0.444444444444     -0.444444444444     -0.375000000000
     -0.444444444444     -0.444444444444     -0.375000000000
     -0.333333333333     -0.444444444444     -0.375000000000
     -0.222222222222     -0.444444444444     -0.375000000000
     -0.111111111111     -0.444444444444     -0.375000000000
      0.000000000000     -0.333333333333     -0.375000000000
      0.111111111111     -0.333333333333     -0.375000000000
      0.222222222222     -0.333333333333     -0.375000000000
      0.333333333333     -0.333333333333     -0.375000000000
      0.444444444444     -0.333333333333     -0.375000000000
     -0.444444444444     -0.333333333333     -0.375000000000
     -0.333333333333     -0.333333333333     -0.375000000000
     -0.222222222222     -0.333333333333     -0.375000000000
     -0.111111111111     -0.333333333333     -0.375000000000
      0.000000000000     -0.222222222222     -0.375000000000
      0.111111111111     -0.222222222222     -0.375000000000
      0.222222222222     -0.222222222222     -0.375000000000
      0.333333333333     -0.222222222222     -0.375000000000
      0.444444444444     -0.222222222222     -0.375000000000
     -0.444444444444     -0.222222222222     -0.375000000000
     -0.333333333333     -0.222222222222     -0.375000000000
     -0.222222222222     -0.222222222222     -0.375000000000
     -0.111111111111     -0.222222222222     -0.375000000000
      0.000000000000     -0.111111111111     -0.375000000000