co1 s2                                  
   1.00000000000000     
     5.5390000342999999    0.0000000000000000    0.0000000000000000
     0.0000000000000000    5.5390000342999999    0.0000000000000000
     0.0000000000000000    0.0000000000000000    5.5390000342999999
   Co   S 
     4     8
Direct
  0.7500000000000000  0.0000000000000000  0.0000000000000000
  0.2500000000000000  0.0000000000000000  0.5000000000000000
  0.7500000000000000  0.5000000000000000  0.5000000000000000
  0.2500000000000000  0.5000000000000000  0.0000000000000000
  0.1398900020000013  0.3898900020000013  0.3898900020000013
  0.3601100409999987  0.6101100409999987  0.6101100409999987
  0.8601100189999968  0.6101100409999987  0.8898899590000013
  0.6398899590000013  0.3898900020000013  0.1101100189999968
  0.3601100409999987  0.8898899590000013  0.1101100189999968
  0.1398900020000013  0.1101100189999968  0.8898899590000013
  0.6398899590000013  0.1101100189999968  0.6101100409999987
  0.8601100189999968  0.8898899590000013  0.3898900020000013
 
  0.00000000E+00  0.00000000E+00  0.00000000E+00
  0.00000000E+00  0.00000000E+00  0.00000000E+00
  0.00000000E+00  0.00000000E+00  0.00000000E+00
  0.00000000E+00  0.00000000E+00  0.00000000E+00
  0.00000000E+00  0.00000000E+00  0.00000000E+00
  0.00000000E+00  0.00000000E+00  0.00000000E+00
  0.00000000E+00  0.00000000E+00  0.00000000E+00
  0.00000000E+00  0.00000000E+00  0.00000000E+00
  0.00000000E+00  0.00000000E+00  0.00000000E+00
  0.00000000E+00  0.00000000E+00  0.00000000E+00
  0.00000000E+00  0.00000000E+00  0.00000000E+00
  0.00000000E+00  0.00000000E+00  0.00000000E+00
