! Twisted  2 layerstheta=   7.340993 degree.
1.0
   19.182348    0.000000    0.000000
   -9.591174   16.612401    0.000000
    0.000000    0.000000   23.360000
     C
   244
Cartesian
    9.748407   14.161391   10.000000        C
   -8.805012   15.432285   10.000000        C
   -7.389921   15.523063   10.000000        C
    2.830183    0.181556   10.000000        C
    4.245274    0.272334   10.000000        C
    4.874203    1.543229   10.000000        C
    6.289295    1.634007   10.000000        C
    6.918224    2.904901   10.000000        C
    8.333315    2.995679   10.000000        C
    8.962245    4.266573   10.000000        C
   10.377336    4.357351   10.000000        C
   11.006266    5.628245   10.000000        C
   12.421357    5.719023   10.000000        C
   13.050286    6.989917   10.000000        C
   14.465378    7.080696   10.000000        C
   -4.088041    8.351590   10.000000        C
   -2.672950    8.442368   10.000000        C
   -2.044021    9.713262   10.000000        C
   -0.628929    9.804040   10.000000        C
    0.000000   11.074934   10.000000        C
    1.415091   11.165712   10.000000        C
    2.044021   12.436606   10.000000        C
    3.459112   12.527384   10.000000        C
    4.088041   13.798278   10.000000        C
   -0.000000   -0.000000   10.000000        C
    0.628929    1.270894   10.000000        C
    2.044021    1.361672   10.000000        C
    2.672950    2.632566   10.000000        C
    4.088041    2.723344   10.000000        C
    4.716971    3.994239   10.000000        C
    6.132062    4.085017   10.000000        C
    6.760992    5.355911   10.000000        C
    8.176083    5.446689   10.000000        C
    8.805012    6.717583   10.000000        C
   10.220104    6.808361   10.000000        C
   10.849033    8.079255   10.000000        C
   12.264124    8.170033   10.000000        C
   12.893054    9.440927   10.000000        C
   -4.874203    9.531706   10.000000        C
   -4.245274   10.802600   10.000000        C
   -2.830183   10.893378   10.000000        C
   -2.201253   12.164272   10.000000        C
   -0.786162   12.255050   10.000000        C
   -0.157232   13.525944   10.000000        C
    1.257859   13.616722   10.000000        C
    1.886788   14.887616   10.000000        C
    3.301880   14.978394   10.000000        C
    3.930809   16.249288   10.000000        C
   -0.157232    2.451010   10.000000        C
    0.471697    3.721904   10.000000        C
    1.886788    3.812682   10.000000        C
    2.515718    5.083576   10.000000        C
    3.930809    5.174354   10.000000        C
    4.559739    6.445248   10.000000        C
    5.974830    6.536027   10.000000        C
    6.603759    7.806921   10.000000        C
    8.018851    7.897699   10.000000        C
    8.647780    9.168593   10.000000        C
   10.062871    9.259371   10.000000        C
   10.691801   10.530265   10.000000        C
   12.106892   10.621043   10.000000        C
   -6.446527   11.891937   10.000000        C
   -5.031436   11.982716   10.000000        C
   -4.402506   13.253610   10.000000        C
   -2.987415   13.344388   10.000000        C
   -2.358485   14.615282   10.000000        C
   -0.943394   14.706060   10.000000        C
   -0.314465   15.976954   10.000000        C
    1.100627   16.067732   10.000000        C
   11.320730    0.726225   10.000000        C
   12.735822    0.817003   10.000000        C
   13.364751    2.087897   10.000000        C
   -0.314465    4.902020   10.000000        C
    0.314465    6.172914   10.000000        C
    1.729556    6.263692   10.000000        C
    2.358485    7.534586   10.000000        C
    3.773577    7.625364   10.000000        C
    4.402506    8.896258   10.000000        C
    5.817597    8.987037   10.000000        C
    6.446527   10.257931   10.000000        C
    7.861618   10.348709   10.000000        C
    8.490548   11.619603   10.000000        C
    9.905639   11.710381   10.000000        C
   10.534568   12.981275   10.000000        C
   -7.232689   13.072053   10.000000        C
   -6.603759   14.342947   10.000000        C
   -5.188668   14.433726   10.000000        C
   -4.559739   15.704620   10.000000        C
   -3.144647   15.795398   10.000000        C
    7.075456    0.453891   10.000000        C
    8.490548    0.544669   10.000000        C
    9.119477    1.815563   10.000000        C
   10.534568    1.906341   10.000000        C
   11.163498    3.177235   10.000000        C
   12.578589    3.268013   10.000000        C
   13.207519    4.538907   10.000000        C
   -0.471697    7.353030   10.000000        C
    0.157232    8.623924   10.000000        C
    1.572324    8.714702   10.000000        C
    2.201253    9.985596   10.000000        C
    3.616344   10.076374   10.000000        C
    4.245274   11.347268   10.000000        C
    5.660365   11.438047   10.000000        C
    6.289295   12.708941   10.000000        C
    7.704386   12.799719   10.000000        C
    8.333315   14.070613   10.000000        C
    5.503133   13.889057   10.000000        C
    6.132062   15.159951   10.000000        C
    7.547153   15.250729   10.000000        C
    8.176083   16.521623   10.000000        C
    5.345900   16.340067   10.000000        C
   15.566004    0.998560   10.000000        C
   16.981095    1.089338   10.000000        C
   17.610025    2.360232   10.000000        C
   14.779842    2.178676   10.000000        C
   15.408772    3.449570   10.000000        C
   16.823863    3.540348   10.000000        C
   -1.729556    4.811242   10.000000        C
   14.622610    4.629686   10.000000        C
   15.251539    5.900580   10.000000        C
   -2.515718    5.991358   10.000000        C
   -1.886788    7.262252   10.000000        C
    6.603759   14.342947   13.360000        C
    7.389921   15.523063   13.360000        C
    8.805012   15.432285   13.360000        C
   -0.000000   -0.000000   13.360000        C
   -8.176083   16.521623   13.360000        C
    2.201253    1.089338   13.360000        C
    3.616344    0.998560   13.360000        C
    4.402506    2.178676   13.360000        C
    5.817597    2.087897   13.360000        C
    6.603759    3.268013   13.360000        C
    8.018851    3.177235   13.360000        C
    8.805012    4.357351   13.360000        C
   10.220104    4.266573   13.360000        C
   11.006266    5.446689   13.360000        C
   12.421357    5.355911   13.360000        C
   13.207519    6.536027   13.360000        C
   14.622610    6.445248   13.360000        C
   -3.773577    7.625364   13.360000        C
   -2.358485    7.534586   13.360000        C
   -1.572324    8.714702   13.360000        C
   -0.157232    8.623924   13.360000        C
    0.628929    9.804040   13.360000        C
    2.044021    9.713262   13.360000        C
    2.830183   10.893378   13.360000        C
   16.352166    0.181556   13.360000        C
   17.138328    1.361672   13.360000        C
   -0.628929    1.270894   13.360000        C
    0.157232    2.451010   13.360000        C
    1.572324    2.360232   13.360000        C
    2.358485    3.540348   13.360000        C
    3.773577    3.449570   13.360000        C
    4.559739    4.629686   13.360000        C
    5.974830    4.538907   13.360000        C
    6.760992    5.719023   13.360000        C
    8.176083    5.628245   13.360000        C
    8.962245    6.808361   13.360000        C
   10.377336    6.717583   13.360000        C
   11.163498    7.897699   13.360000        C
   12.578589    7.806921   13.360000        C
   13.364751    8.987037   13.360000        C
   -4.402506    8.896258   13.360000        C
   -3.616344   10.076374   13.360000        C
   -2.201253    9.985596   13.360000        C
   -1.415091   11.165712   13.360000        C
    0.000000   11.074934   13.360000        C
    0.786162   12.255050   13.360000        C
    2.201253   12.164272   13.360000        C
    2.987415   13.344388   13.360000        C
   16.509398    2.632566   13.360000        C
   -1.886788    3.812682   13.360000        C
   -0.471697    3.721904   13.360000        C
    0.314465    4.902020   13.360000        C
    1.729556    4.811242   13.360000        C
    2.515718    5.991358   13.360000        C
    3.930809    5.900580   13.360000        C
    4.716971    7.080696   13.360000        C
    6.132062    6.989917   13.360000        C
    6.918224    8.170033   13.360000        C
    8.333315    8.079255   13.360000        C
    9.119477    9.259371   13.360000        C
   10.534568    9.168593   13.360000        C
   11.320730   10.348709   13.360000        C
   12.735822   10.257931   13.360000        C
   -5.660365   11.438047   13.360000        C
   -4.245274   11.347268   13.360000        C
   -3.459112   12.527384   13.360000        C
   -2.044021   12.436606   13.360000        C
   -1.257859   13.616722   13.360000        C
    0.157232   13.525944   13.360000        C
    0.943394   14.706060   13.360000        C
    2.358485   14.615282   13.360000        C
    3.144647   15.795398   13.360000        C
   -2.515718    5.083576   13.360000        C
   -1.729556    6.263692   13.360000        C
   -0.314465    6.172914   13.360000        C
    0.471697    7.353030   13.360000        C
    1.886788    7.262252   13.360000        C
    2.672950    8.442368   13.360000        C
    4.088041    8.351590   13.360000        C
    4.874203    9.531706   13.360000        C
    6.289295    9.440927   13.360000        C
    7.075456   10.621043   13.360000        C
    8.490548   10.530265   13.360000        C
    9.276709   11.710381   13.360000        C
   10.691801   11.619603   13.360000        C
   11.477963   12.799719   13.360000        C
   -6.289295   12.708941   13.360000        C
   -5.503133   13.889057   13.360000        C
   -4.088041   13.798278   13.360000        C
   -3.301880   14.978394   13.360000        C
   -1.886788   14.887616   13.360000        C
   -1.100627   16.067732   13.360000        C
    0.314465   15.976954   13.360000        C
   10.691801    0.544669   13.360000        C
   12.106892    0.453891   13.360000        C
   12.893054    1.634007   13.360000        C
    4.245274   10.802600   13.360000        C
    5.031436   11.982716   13.360000        C
    6.446527   11.891937   13.360000        C
    7.232689   13.072053   13.360000        C
    8.647780   12.981275   13.360000        C
    9.433942   14.161391   13.360000        C
   10.849033   14.070613   13.360000        C
   -7.547153   15.250729   13.360000        C
   -6.132062   15.159951   13.360000        C
   -5.345900   16.340067   13.360000        C
   -3.930809   16.249288   13.360000        C
    6.446527    0.817003   13.360000        C
    7.861618    0.726225   13.360000        C
    8.647780    1.906341   13.360000        C
   10.062871    1.815563   13.360000        C
   10.849033    2.995679   13.360000        C
   12.264124    2.904901   13.360000        C
   13.050286    4.085017   13.360000        C
    4.402506   13.253610   13.360000        C
    5.188668   14.433726   13.360000        C
    4.559739   15.704620   13.360000        C
   14.937075    0.272334   13.360000        C
   14.308145    1.543229   13.360000        C
   15.094307    2.723344   13.360000        C
   14.465378    3.994239   13.360000        C
   15.251539    5.174354   13.360000        C
