SYSTEM = Bi2Se3
EDIFF = 1E-8
PREC = N
LSORBIT = .TRUE.
LORBIT = 11
ISMEAR =  0
SIGMA  =  0.05
GGA    = PE
ISYM = -1
ENCUT = 300.00 eV
MAGMOM = 3600*0.0
ISTART = 1
ICHARG = 11
NBANDS = 60
LWANNIER90 = .TRUE.
LWRITE_MMN_AMN = .TRUE. 
