num_wann = 30
num_bands = 60

dis_num_iter=1000
num_iter=0
iprint=2

!min of outer window
dis_win_min = -2.0
dis_win_max = 18.0

!inner -
dis_froz_min = -2.0000
dis_froz_max = 5.5000
hr_plot =.true.


begin projections
Bi : px; py; pz
Se : px; py; pz
end projections

spinors = .true.
