#---------------------------Start of INCAR Parameters--------------------------
# Startparameter for this run:
   PREC   = Accurate
   ISTART =      1   # job   : 0-new  1-cont  2-samecut
   ICHARG =      11  # charge: 1-file 2-atom 10-const
#-------------------------------------------------------------------------------
#  Electronic Relaxation 
   ENCUT  =  500.0   # eV  44.10 Ry    6.64 a.u.   7.10  7.10  7.10*2*pi/ulx,y,z
   PREC   = Accurate
   EDIFF  = 1E-07  # stopping-criterion for ELM
   LREAL  =      F   # real-space projection
   NBANDS = 144
   ISYM   = 2    # 0-nonsym 1-usesym 2-fastsym
#-------------------------------------------------------------------------------
#-------------------------------------------------------------------------------
# DOS related values:
   ISMEAR =     0;
   SIGMA  =   0.05  # broadening in eV -4-tet -1-fermi 0-gaus
#-------------------------------------------------------------------------------
IALGO  = 38
LWAVE  =  F   # write WAVECAR
LCHARG =   T   # write CHGCAR
LMAXMIX = 4
LORBIT = 11

LWANNIER90 = .TRUE.
LWANNIER90_RUN = .TRUE.
LWRITE_MMN_AMN = .TRUE.

#-------------------------------------------------------------------------------
#                                 End of INCAR 
#-------------------------------------------------------------------------------
