Auto.Mesh.Kpts
0
Monkhorst-Pack
11    11   11
0.0  0.0  0.0
