B16-AA                                  
   1.00000000000000     
    -3.8889403198684809    2.5564011223049747    4.1324340392468253
     3.8889403198600525   -2.5564011223045635    4.1324340392455445
     3.8889403198630697    2.5564011222967848   -4.1324340392466352
   B 
  16
Direct
  0.8715596512123196  0.3761266890900568  0.8368540032613987
  0.5392726858206579  0.0347056479459341  0.1631459967330620
  0.4607273141750160  0.6238733109002265  0.4954329621249251
  0.1284403487859134  0.9652943520571855  0.5045670378836173
  0.1284403487859134  0.6238733109002265  0.1631459967330620
  0.4607273141750160  0.9652943520571855  0.8368540032613987
  0.5392726858206579  0.3761266890900568  0.5045670378836173
  0.8715596512123196  0.0347056479459341  0.4954329621249251
  0.9268048908158281  0.1076603622871785  0.8191445285418650
  0.2885158337613841  0.1076603622871785  0.1808554714678243
  0.7114841662514830  0.8923396377030997  0.8191445285418650
  0.0731951091808547  0.8923396377030997  0.1808554714678243
  0.2051527564022568  0.0321637763801769  0.8270110199710670
  0.2051527564022568  0.3781417364292268  0.1729889800220246
  0.7948472435956581  0.9678362236305493  0.1729889800220246
  0.7948472435956581  0.6218582635827553  0.8270110199710670
 
  0.00000000E+00  0.00000000E+00  0.00000000E+00
  0.00000000E+00  0.00000000E+00  0.00000000E+00
  0.00000000E+00  0.00000000E+00  0.00000000E+00
  0.00000000E+00  0.00000000E+00  0.00000000E+00
  0.00000000E+00  0.00000000E+00  0.00000000E+00
  0.00000000E+00  0.00000000E+00  0.00000000E+00
  0.00000000E+00  0.00000000E+00  0.00000000E+00
  0.00000000E+00  0.00000000E+00  0.00000000E+00
  0.00000000E+00  0.00000000E+00  0.00000000E+00
  0.00000000E+00  0.00000000E+00  0.00000000E+00
  0.00000000E+00  0.00000000E+00  0.00000000E+00
  0.00000000E+00  0.00000000E+00  0.00000000E+00
  0.00000000E+00  0.00000000E+00  0.00000000E+00
  0.00000000E+00  0.00000000E+00  0.00000000E+00
  0.00000000E+00  0.00000000E+00  0.00000000E+00
  0.00000000E+00  0.00000000E+00  0.00000000E+00
