num_wann =  64
num_bands = 144

num_iter     = 0
dis_conv_tol=1.0E-11

dis_win_max  =  33.0
dis_win_min  = -13.0

dis_froz_min = -13.0
dis_froz_max =   6.0

bands_plot =.true.
hr_plot=.true.
guiding_centres = .true.

iprint=3

write_xyz = True
translate_home_cell = False

Begin Projections
B: l=0;l=1       
End Projections

begin unit_cell_cart
    -3.8889403     2.5564011     4.1324340
     3.8889403    -2.5564011     4.1324340
     3.8889403     2.5564011    -4.1324340
end unit_cell_cart

begin atoms_cart
B        1.3277661     3.4058599     1.6977375
B       -1.3277661     1.7069424     1.6977375
B        2.5611743     0.8494588     2.4346965
B        5.2167064    -0.8494588     2.4346965
B        2.5611743    -0.8494588     2.4346965
B        5.2167064     0.8494588     2.4346965
B        1.3277661     1.7069424     1.6977375
B       -1.3277661     3.4058599     1.6977375
B        0.0000000     4.1881240     0.8897987
B        0.0000000     0.9246783     0.8897987
B        3.8889403     1.6317229     3.2426353
B        3.8889403    -1.6317229     3.2426353
B        2.5434527     2.5564011    -2.4368736
B        1.3454876     0.0000000     1.6955605
B        1.3454876     0.0000000     6.5693076
B        2.5434527     2.5564011     2.4368736
end atoms_cart

begin kpoint_path
G 0.000	 0.000	 0.000 W 0.750	-0.250	-0.250 
W 0.750	-0.250	-0.250 R 0.500	0.000	0.000 
R 0.500	0.000	0.000 G 0.000	0.000	0.000 
G 0.000	0.000	0.000 X 0.500	0.500	-0.500 
X 0.500	0.500	-0.500 S 0.500	0.000	-0.500 
S 0.500	0.000	-0.500 G 0.000	0.000	0.000
end kpoint_path

mp_grid =   11 11 11


begin kpoints
      0.000000000000      0.000000000000      0.000000000000
      0.090909090909      0.000000000000      0.000000000000
      0.181818181818      0.000000000000      0.000000000000
      0.272727272727      0.000000000000      0.000000000000
      0.363636363636      0.000000000000      0.000000000000
      0.454545454545      0.000000000000     -0.000000000000
      0.000000000000      0.090909090909      0.000000000000
      0.090909090909      0.090909090909      0.000000000000
      0.181818181818      0.090909090909     -0.000000000000
      0.272727272727      0.090909090909      0.000000000000
      0.363636363636      0.090909090909     -0.000000000000
      0.454545454545      0.090909090909      0.000000000000
     -0.454545454545      0.090909090909     -0.000000000000
     -0.363636363636      0.090909090909      0.000000000000
     -0.272727272727      0.090909090909      0.000000000000
     -0.181818181818      0.090909090909      0.000000000000
     -0.090909090909      0.090909090909      0.000000000000
      0.000000000000      0.181818181818      0.000000000000
      0.090909090909      0.181818181818      0.000000000000
      0.181818181818      0.181818181818      0.000000000000
      0.272727272727      0.181818181818      0.000000000000
      0.363636363636      0.181818181818     -0.000000000000
      0.454545454545      0.181818181818     -0.000000000000
     -0.454545454545      0.181818181818      0.000000000000
     -0.363636363636      0.181818181818      0.000000000000
     -0.272727272727      0.181818181818      0.000000000000
     -0.181818181818      0.181818181818      0.000000000000
     -0.090909090909      0.181818181818      0.000000000000
      0.000000000000      0.272727272727      0.000000000000
      0.090909090909      0.272727272727      0.000000000000
      0.181818181818      0.272727272727      0.000000000000
      0.272727272727      0.272727272727      0.000000000000
      0.363636363636      0.272727272727      0.000000000000
      0.454545454545      0.272727272727      0.000000000000
     -0.454545454545      0.272727272727     -0.000000000000
     -0.363636363636      0.272727272727      0.000000000000
     -0.272727272727      0.272727272727      0.000000000000
     -0.181818181818      0.272727272727      0.000000000000
     -0.090909090909      0.272727272727      0.000000000000
      0.000000000000      0.363636363636      0.000000000000
      0.090909090909      0.363636363636      0.000000000000
      0.181818181818      0.363636363636      0.000000000000
      0.272727272727      0.363636363636      0.000000000000
      0.363636363636      0.363636363636      0.000000000000
      0.454545454545      0.363636363636      0.000000000000
     -0.454545454545      0.363636363636     -0.000000000000
     -0.363636363636      0.363636363636      0.000000000000
     -0.272727272727      0.363636363636      0.000000000000
     -0.181818181818      0.363636363636      0.000000000000
     -0.090909090909      0.363636363636      0.000000000000
      0.000000000000      0.454545454545      0.000000000000
      0.090909090909      0.454545454545      0.000000000000
      0.181818181818      0.454545454545      0.000000000000
      0.272727272727      0.454545454545     -0.000000000000
      0.363636363636      0.454545454545      0.000000000000
      0.454545454545      0.454545454545      0.000000000000
     -0.454545454545      0.454545454545     -0.000000000000
     -0.363636363636      0.454545454545      0.000000000000
     -0.272727272727      0.454545454545     -0.000000000000
     -0.181818181818      0.454545454545      0.000000000000
     -0.090909090909      0.454545454545      0.000000000000
      0.090909090909      0.090909090909      0.090909090909
      0.181818181818      0.090909090909      0.090909090909
      0.272727272727      0.090909090909      0.090909090909
      0.363636363636      0.090909090909      0.090909090909
     -0.090909090909      0.090909090909      0.090909090909
      0.090909090909      0.181818181818      0.090909090909
      0.181818181818      0.181818181818      0.090909090909
      0.272727272727      0.181818181818      0.090909090909
      0.363636363636      0.181818181818      0.090909090909
      0.454545454545      0.181818181818      0.090909090909
     -0.454545454545      0.181818181818      0.090909090909
     -0.363636363636      0.181818181818      0.090909090909
     -0.181818181818      0.181818181818      0.090909090909
     -0.090909090909      0.181818181818      0.090909090909
      0.090909090909      0.272727272727      0.090909090909
      0.181818181818      0.272727272727      0.090909090909
      0.272727272727      0.272727272727      0.090909090909
      0.363636363636      0.272727272727      0.090909090909
      0.454545454545      0.272727272727      0.090909090909
     -0.454545454545      0.272727272727      0.090909090909
     -0.272727272727      0.272727272727      0.090909090909
     -0.181818181818      0.272727272727      0.090909090909
     -0.090909090909      0.272727272727      0.090909090909
      0.090909090909      0.363636363636      0.090909090909
      0.181818181818      0.363636363636      0.090909090909
      0.272727272727      0.363636363636      0.090909090909
      0.363636363636      0.363636363636      0.090909090909
      0.454545454545      0.363636363636      0.090909090909
     -0.363636363636      0.363636363636      0.090909090909
     -0.272727272727      0.363636363636      0.090909090909
     -0.181818181818      0.363636363636      0.090909090909
     -0.090909090909      0.363636363636      0.090909090909
      0.181818181818      0.454545454545      0.090909090909
      0.272727272727      0.454545454545      0.090909090909
     -0.454545454545      0.454545454545      0.090909090909
     -0.363636363636      0.454545454545      0.090909090909
     -0.272727272727      0.454545454545      0.090909090909
     -0.181818181818      0.454545454545      0.090909090909
     -0.090909090909      0.454545454545      0.090909090909
      0.181818181818     -0.454545454545      0.090909090909
      0.454545454545     -0.454545454545      0.090909090909
     -0.454545454545     -0.454545454545      0.090909090909
     -0.363636363636     -0.454545454545      0.090909090909
     -0.272727272727     -0.454545454545      0.090909090909
     -0.181818181818     -0.454545454545      0.090909090909
     -0.090909090909     -0.454545454545      0.090909090909
      0.363636363636     -0.363636363636      0.090909090909
      0.454545454545     -0.363636363636      0.090909090909
     -0.454545454545     -0.363636363636      0.090909090909
     -0.363636363636     -0.363636363636      0.090909090909
     -0.272727272727     -0.363636363636      0.090909090909
     -0.181818181818     -0.363636363636      0.090909090909
     -0.090909090909     -0.363636363636      0.090909090909
      0.272727272727     -0.272727272727      0.090909090909
      0.363636363636     -0.272727272727      0.090909090909
      0.454545454545     -0.272727272727      0.090909090909
     -0.454545454545     -0.272727272727      0.090909090909
     -0.363636363636     -0.272727272727      0.090909090909
     -0.272727272727     -0.272727272727      0.090909090909
     -0.181818181818     -0.272727272727      0.090909090909
     -0.090909090909     -0.272727272727      0.090909090909
      0.181818181818     -0.181818181818      0.090909090909
      0.272727272727     -0.181818181818      0.090909090909
      0.363636363636     -0.181818181818      0.090909090909
      0.454545454545     -0.181818181818      0.090909090909
     -0.454545454545     -0.181818181818      0.090909090909
     -0.363636363636     -0.181818181818      0.090909090909
     -0.272727272727     -0.181818181818      0.090909090909
     -0.181818181818     -0.181818181818      0.090909090909
     -0.090909090909     -0.181818181818      0.090909090909
      0.090909090909     -0.090909090909      0.090909090909
      0.181818181818     -0.090909090909      0.090909090909
      0.272727272727     -0.090909090909      0.090909090909
      0.363636363636     -0.090909090909      0.090909090909
      0.454545454545     -0.090909090909      0.090909090909
     -0.454545454545     -0.090909090909      0.090909090909
     -0.363636363636     -0.090909090909      0.090909090909
     -0.272727272727     -0.090909090909      0.090909090909
     -0.181818181818     -0.090909090909      0.090909090909
     -0.090909090909     -0.090909090909      0.090909090909
      0.181818181818      0.181818181818      0.181818181818
      0.272727272727      0.181818181818      0.181818181818
     -0.181818181818      0.181818181818      0.181818181818
      0.181818181818      0.272727272727      0.181818181818
      0.272727272727      0.272727272727      0.181818181818
      0.363636363636      0.272727272727      0.181818181818
     -0.272727272727      0.272727272727      0.181818181818
     -0.181818181818      0.272727272727      0.181818181818
     -0.363636363636      0.363636363636      0.181818181818
     -0.272727272727      0.363636363636      0.181818181818
     -0.181818181818      0.363636363636      0.181818181818
     -0.454545454545      0.454545454545      0.181818181818
     -0.363636363636      0.454545454545      0.181818181818
     -0.272727272727      0.454545454545      0.181818181818
     -0.181818181818      0.454545454545      0.181818181818
      0.454545454545     -0.454545454545      0.181818181818
     -0.454545454545     -0.454545454545      0.181818181818
     -0.363636363636     -0.454545454545      0.181818181818
     -0.272727272727     -0.454545454545      0.181818181818
     -0.181818181818     -0.454545454545      0.181818181818
      0.363636363636     -0.363636363636      0.181818181818
      0.454545454545     -0.363636363636      0.181818181818
     -0.454545454545     -0.363636363636      0.181818181818
     -0.363636363636     -0.363636363636      0.181818181818
     -0.272727272727     -0.363636363636      0.181818181818
     -0.181818181818     -0.363636363636      0.181818181818
      0.272727272727     -0.272727272727      0.181818181818
      0.363636363636     -0.272727272727      0.181818181818
      0.454545454545     -0.272727272727      0.181818181818
     -0.454545454545     -0.272727272727      0.181818181818
     -0.363636363636     -0.272727272727      0.181818181818
     -0.272727272727     -0.272727272727      0.181818181818
     -0.181818181818     -0.272727272727      0.181818181818
      0.181818181818     -0.181818181818      0.181818181818
      0.272727272727     -0.181818181818      0.181818181818
      0.363636363636     -0.181818181818      0.181818181818
      0.454545454545     -0.181818181818      0.181818181818
     -0.454545454545     -0.181818181818      0.181818181818
     -0.363636363636     -0.181818181818      0.181818181818
     -0.272727272727     -0.181818181818      0.181818181818
     -0.181818181818     -0.181818181818      0.181818181818
     -0.272727272727      0.272727272727      0.272727272727
     -0.363636363636      0.363636363636      0.272727272727
     -0.272727272727      0.363636363636      0.272727272727
     -0.454545454545      0.454545454545      0.272727272727
     -0.363636363636      0.454545454545      0.272727272727
     -0.272727272727      0.454545454545      0.272727272727
      0.454545454545     -0.454545454545      0.272727272727
     -0.454545454545     -0.454545454545      0.272727272727
     -0.363636363636     -0.454545454545      0.272727272727
     -0.272727272727     -0.454545454545      0.272727272727
      0.363636363636     -0.363636363636      0.272727272727
      0.454545454545     -0.363636363636      0.272727272727
     -0.454545454545     -0.363636363636      0.272727272727
     -0.363636363636     -0.363636363636      0.272727272727
     -0.272727272727     -0.363636363636      0.272727272727
      0.272727272727     -0.272727272727      0.272727272727
      0.363636363636     -0.272727272727      0.272727272727
      0.454545454545     -0.272727272727      0.272727272727
     -0.454545454545     -0.272727272727      0.272727272727
     -0.363636363636     -0.272727272727      0.272727272727
     -0.272727272727     -0.272727272727      0.272727272727
     -0.363636363636      0.363636363636      0.363636363636
     -0.454545454545      0.454545454545      0.363636363636
     -0.363636363636      0.454545454545      0.363636363636
      0.454545454545     -0.454545454545      0.363636363636
     -0.454545454545     -0.454545454545      0.363636363636
     -0.363636363636     -0.454545454545      0.363636363636
      0.363636363636     -0.363636363636      0.363636363636
      0.454545454545     -0.363636363636      0.363636363636
     -0.454545454545     -0.363636363636      0.363636363636
     -0.363636363636     -0.363636363636      0.363636363636
     -0.454545454545      0.454545454545      0.454545454545
      0.454545454545     -0.454545454545      0.454545454545
     -0.454545454545     -0.454545454545      0.454545454545
     -0.090909090909      0.000000000000      0.000000000000
      0.000000000000      0.090909090909     -0.090909090909
      0.000000000000     -0.090909090909      0.090909090909
     -0.181818181818      0.000000000000      0.000000000000
      0.000000000000      0.181818181818     -0.181818181818
      0.000000000000     -0.181818181818      0.181818181818
     -0.272727272727     -0.000000000000      0.000000000000
      0.000000000000      0.272727272727     -0.272727272727
     -0.000000000000     -0.272727272727      0.272727272727
     -0.363636363636      0.000000000000      0.000000000000
      0.000000000000      0.363636363636     -0.363636363636
      0.000000000000     -0.363636363636      0.363636363636
     -0.454545454545     -0.000000000000      0.000000000000
      0.000000000000      0.454545454545     -0.454545454545
     -0.000000000000     -0.454545454545      0.454545454545
     -0.000000000000     -0.090909090909     -0.000000000000
      0.090909090909      0.000000000000     -0.090909090909
     -0.090909090909     -0.000000000000      0.090909090909
     -0.090909090909     -0.090909090909      0.000000000000
      0.090909090909      0.090909090909     -0.181818181818
     -0.090909090909     -0.090909090909      0.181818181818
     -0.181818181818      0.000000000000      0.090909090909
      0.181818181818      0.000000000000     -0.090909090909
      0.000000000000     -0.181818181818      0.090909090909
      0.000000000000      0.181818181818     -0.090909090909
     -0.181818181818     -0.090909090909      0.000000000000
      0.090909090909      0.181818181818     -0.272727272727
     -0.090909090909     -0.181818181818      0.272727272727
     -0.272727272727     -0.000000000000      0.090909090909
      0.272727272727      0.000000000000     -0.090909090909
     -0.000000000000     -0.272727272727      0.181818181818
      0.000000000000      0.272727272727     -0.181818181818
     -0.272727272727     -0.090909090909     -0.000000000000
      0.090909090909      0.272727272727     -0.363636363636
     -0.090909090909     -0.272727272727      0.363636363636
     -0.363636363636      0.000000000000      0.090909090909
      0.363636363636     -0.000000000000     -0.090909090909
      0.000000000000     -0.363636363636      0.272727272727
     -0.000000000000      0.363636363636     -0.272727272727
     -0.363636363636     -0.090909090909      0.000000000000
      0.090909090909      0.363636363636     -0.454545454545
     -0.090909090909     -0.363636363636      0.454545454545
     -0.454545454545     -0.000000000000      0.090909090909
      0.454545454545      0.000000000000     -0.090909090909
     -0.000000000000     -0.454545454545      0.363636363636
      0.000000000000      0.454545454545     -0.363636363636
     -0.454545454545     -0.090909090909     -0.000000000000
      0.090909090909      0.454545454545     -0.545454545455
     -0.090909090909     -0.454545454545      0.545454545455
     -0.545454545455      0.000000000000      0.090909090909
      0.545454545455     -0.000000000000     -0.090909090909
      0.000000000000     -0.545454545455      0.454545454545
     -0.000000000000      0.545454545455     -0.454545454545
      0.454545454545     -0.090909090909      0.000000000000
      0.090909090909     -0.454545454545      0.363636363636
     -0.090909090909      0.454545454545     -0.363636363636
      0.363636363636     -0.000000000000      0.090909090909
     -0.363636363636      0.000000000000     -0.090909090909
     -0.000000000000      0.363636363636     -0.454545454545
      0.000000000000     -0.363636363636      0.454545454545
      0.363636363636     -0.090909090909     -0.000000000000
      0.090909090909     -0.363636363636      0.272727272727
     -0.090909090909      0.363636363636     -0.272727272727
      0.272727272727      0.000000000000      0.090909090909
     -0.272727272727     -0.000000000000     -0.090909090909
      0.000000000000      0.272727272727     -0.363636363636
     -0.000000000000     -0.272727272727      0.363636363636
      0.272727272727     -0.090909090909     -0.000000000000
      0.090909090909     -0.272727272727      0.181818181818
     -0.090909090909      0.272727272727     -0.181818181818
      0.181818181818      0.000000000000      0.090909090909
     -0.181818181818     -0.000000000000     -0.090909090909
      0.000000000000      0.181818181818     -0.272727272727
     -0.000000000000     -0.181818181818      0.272727272727
      0.181818181818     -0.090909090909     -0.000000000000
      0.090909090909     -0.181818181818      0.090909090909
     -0.090909090909      0.181818181818     -0.090909090909
      0.090909090909      0.000000000000      0.090909090909
     -0.090909090909     -0.000000000000     -0.090909090909
      0.000000000000      0.090909090909     -0.181818181818
     -0.000000000000     -0.090909090909      0.181818181818
      0.090909090909     -0.090909090909     -0.000000000000
     -0.000000000000      0.000000000000      0.090909090909
      0.000000000000     -0.000000000000     -0.090909090909
     -0.000000000000     -0.181818181818     -0.000000000000
      0.181818181818      0.000000000000     -0.181818181818
     -0.181818181818     -0.000000000000      0.181818181818
     -0.090909090909     -0.181818181818      0.000000000000
      0.181818181818      0.090909090909     -0.272727272727
     -0.181818181818     -0.090909090909      0.272727272727
     -0.272727272727      0.000000000000      0.181818181818
      0.272727272727      0.000000000000     -0.181818181818
      0.000000000000     -0.272727272727      0.090909090909
      0.000000000000      0.272727272727     -0.090909090909
     -0.181818181818     -0.181818181818      0.000000000000
      0.181818181818      0.181818181818     -0.363636363636
     -0.181818181818     -0.181818181818      0.363636363636
     -0.363636363636      0.000000000000      0.181818181818
      0.363636363636      0.000000000000     -0.181818181818
      0.000000000000     -0.363636363636      0.181818181818
      0.000000000000      0.363636363636     -0.181818181818
     -0.272727272727     -0.181818181818      0.000000000000
      0.181818181818      0.272727272727     -0.454545454545
     -0.181818181818     -0.272727272727      0.454545454545
     -0.454545454545      0.000000000000      0.181818181818
      0.454545454545      0.000000000000     -0.181818181818
      0.000000000000     -0.454545454545      0.272727272727
      0.000000000000      0.454545454545     -0.272727272727
     -0.363636363636     -0.181818181818      0.000000000000
      0.181818181818      0.363636363636     -0.545454545455
     -0.181818181818     -0.363636363636      0.545454545455
     -0.545454545455     -0.000000000000      0.181818181818
      0.545454545455      0.000000000000     -0.181818181818
     -0.000000000000     -0.545454545455      0.363636363636
      0.000000000000      0.545454545455     -0.363636363636
     -0.454545454545     -0.181818181818      0.000000000000
      0.181818181818      0.454545454545     -0.636363636364
     -0.181818181818     -0.454545454545      0.636363636364
     -0.636363636364     -0.000000000000      0.181818181818
      0.636363636364      0.000000000000     -0.181818181818
     -0.000000000000     -0.636363636364      0.454545454545
      0.000000000000      0.636363636364     -0.454545454545
      0.454545454545     -0.181818181818      0.000000000000
      0.181818181818     -0.454545454545      0.272727272727
     -0.181818181818      0.454545454545     -0.272727272727
      0.272727272727      0.000000000000      0.181818181818
     -0.272727272727      0.000000000000     -0.181818181818
      0.000000000000      0.272727272727     -0.454545454545
      0.000000000000     -0.272727272727      0.454545454545
      0.363636363636     -0.181818181818     -0.000000000000
      0.181818181818     -0.363636363636      0.181818181818
     -0.181818181818      0.363636363636     -0.181818181818
      0.181818181818      0.000000000000      0.181818181818
     -0.181818181818     -0.000000000000     -0.181818181818
      0.000000000000      0.181818181818     -0.363636363636
     -0.000000000000     -0.181818181818      0.363636363636
      0.272727272727     -0.181818181818     -0.000000000000
      0.181818181818     -0.272727272727      0.090909090909
     -0.181818181818      0.272727272727     -0.090909090909
      0.090909090909      0.000000000000      0.181818181818
     -0.090909090909     -0.000000000000     -0.181818181818
      0.000000000000      0.090909090909     -0.272727272727
     -0.000000000000     -0.090909090909      0.272727272727
      0.181818181818     -0.181818181818     -0.000000000000
     -0.000000000000      0.000000000000      0.181818181818
      0.000000000000     -0.000000000000     -0.181818181818
      0.090909090909     -0.181818181818      0.000000000000
      0.181818181818     -0.090909090909     -0.090909090909
     -0.181818181818      0.090909090909      0.090909090909
     -0.090909090909      0.000000000000      0.181818181818
      0.090909090909      0.000000000000     -0.181818181818
      0.000000000000     -0.090909090909     -0.090909090909
      0.000000000000      0.090909090909      0.090909090909
      0.000000000000     -0.272727272727     -0.000000000000
      0.272727272727      0.000000000000     -0.272727272727
     -0.272727272727      0.000000000000      0.272727272727
     -0.090909090909     -0.272727272727     -0.000000000000
      0.272727272727      0.090909090909     -0.363636363636
     -0.272727272727     -0.090909090909      0.363636363636
     -0.363636363636      0.000000000000      0.272727272727
      0.363636363636     -0.000000000000     -0.272727272727
      0.000000000000     -0.363636363636      0.090909090909
     -0.000000000000      0.363636363636     -0.090909090909
     -0.181818181818     -0.272727272727      0.000000000000
      0.272727272727      0.181818181818     -0.454545454545
     -0.272727272727     -0.181818181818      0.454545454545
     -0.454545454545      0.000000000000      0.272727272727
      0.454545454545      0.000000000000     -0.272727272727
      0.000000000000     -0.454545454545      0.181818181818
      0.000000000000      0.454545454545     -0.181818181818
     -0.272727272727     -0.272727272727      0.000000000000
      0.272727272727      0.272727272727     -0.545454545455
     -0.272727272727     -0.272727272727      0.545454545455
     -0.545454545455      0.000000000000      0.272727272727
      0.545454545455      0.000000000000     -0.272727272727
      0.000000000000     -0.545454545455      0.272727272727
      0.000000000000      0.545454545455     -0.272727272727
     -0.363636363636     -0.272727272727     -0.000000000000
      0.272727272727      0.363636363636     -0.636363636364
     -0.272727272727     -0.363636363636      0.636363636364
     -0.636363636364      0.000000000000      0.272727272727
      0.636363636364     -0.000000000000     -0.272727272727
      0.000000000000     -0.636363636364      0.363636363636
     -0.000000000000      0.636363636364     -0.363636363636
     -0.454545454545     -0.272727272727     -0.000000000000
      0.272727272727      0.454545454545     -0.727272727273
     -0.272727272727     -0.454545454545      0.727272727273
     -0.727272727273      0.000000000000      0.272727272727
      0.727272727273     -0.000000000000     -0.272727272727
      0.000000000000     -0.727272727273      0.454545454545
     -0.000000000000      0.727272727273     -0.454545454545
      0.454545454545     -0.272727272727      0.000000000000
      0.272727272727     -0.454545454545      0.181818181818
     -0.272727272727      0.454545454545     -0.181818181818
      0.181818181818     -0.000000000000      0.272727272727
     -0.181818181818      0.000000000000     -0.272727272727
     -0.000000000000      0.181818181818     -0.454545454545
      0.000000000000     -0.181818181818      0.454545454545
      0.363636363636     -0.272727272727     -0.000000000000
      0.272727272727     -0.363636363636      0.090909090909
     -0.272727272727      0.363636363636     -0.090909090909
      0.090909090909      0.000000000000      0.272727272727
     -0.090909090909     -0.000000000000     -0.272727272727
      0.000000000000      0.090909090909     -0.363636363636
     -0.000000000000     -0.090909090909      0.363636363636
      0.272727272727     -0.272727272727     -0.000000000000
      0.000000000000      0.000000000000      0.272727272727
     -0.000000000000     -0.000000000000     -0.272727272727
      0.181818181818     -0.272727272727     -0.000000000000
      0.272727272727     -0.181818181818     -0.090909090909
     -0.272727272727      0.181818181818      0.090909090909
     -0.090909090909      0.000000000000      0.272727272727
      0.090909090909     -0.000000000000     -0.272727272727
      0.000000000000     -0.090909090909     -0.181818181818
     -0.000000000000      0.090909090909      0.181818181818
      0.090909090909     -0.272727272727     -0.000000000000
      0.272727272727     -0.090909090909     -0.181818181818
     -0.272727272727      0.090909090909      0.181818181818
     -0.181818181818      0.000000000000      0.272727272727
      0.181818181818     -0.000000000000     -0.272727272727
      0.000000000000     -0.181818181818     -0.090909090909
     -0.000000000000      0.181818181818      0.090909090909
     -0.000000000000     -0.363636363636     -0.000000000000
      0.363636363636      0.000000000000     -0.363636363636
     -0.363636363636     -0.000000000000      0.363636363636
     -0.090909090909     -0.363636363636     -0.000000000000
      0.363636363636      0.090909090909     -0.454545454545
     -0.363636363636     -0.090909090909      0.454545454545
     -0.454545454545      0.000000000000      0.363636363636
      0.454545454545     -0.000000000000     -0.363636363636
      0.000000000000     -0.454545454545      0.090909090909
     -0.000000000000      0.454545454545     -0.090909090909
     -0.181818181818     -0.363636363636      0.000000000000
      0.363636363636      0.181818181818     -0.545454545455
     -0.363636363636     -0.181818181818      0.545454545455
     -0.545454545455      0.000000000000      0.363636363636
      0.545454545455      0.000000000000     -0.363636363636
      0.000000000000     -0.545454545455      0.181818181818
      0.000000000000      0.545454545455     -0.181818181818
     -0.272727272727     -0.363636363636      0.000000000000
      0.363636363636      0.272727272727     -0.636363636364
     -0.363636363636     -0.272727272727      0.636363636364
     -0.636363636364      0.000000000000      0.363636363636
      0.636363636364      0.000000000000     -0.363636363636
      0.000000000000     -0.636363636364      0.272727272727
      0.000000000000      0.636363636364     -0.272727272727
     -0.363636363636     -0.363636363636      0.000000000000
      0.363636363636      0.363636363636     -0.727272727273
     -0.363636363636     -0.363636363636      0.727272727273